     Program PWSCF v.6.3MaX starts on 10May2022 at 16:18:12

     R & G space division:  proc/nbgrp/npool/nimage =      12
     Waiting for input...
     Reading input from standard input

     Current dimensions of program PWSCF are:
     Max number of different atomic species (ntypx) = 10
     Max number of k-points (npk) =  40000
     Max angular momentum in pseudopotentials (lmaxx) =  3
               file Ge.pbe-dn-kjpaw_psl.0.2.2.UPF: wavefunction(s)  4P 3D renormalized

     bravais-lattice index     =            2
     lattice parameter (alat)  =       7.5000  a.u.
     unit-cell volume          =     105.4688 (a.u.)^3
     number of atoms/cell      =            2
     number of atomic types    =            1
     number of electrons       =        28.00
     number of Kohn-Sham states=           14
     kinetic-energy cutoff     =      35.0000  Ry
     charge density cutoff     =     140.0000  Ry
     convergence threshold     =      1.0E-08
     mixing beta               =       0.7000
     number of iterations used =            8  plain     mixing
     Exchange-correlation      = SLA PW PBX PBC ( 1  4  3  4 0 0)
     nstep                     =           50

     celldm(1)=   7.500000  celldm(2)=   0.000000  celldm(3)=   0.000000
     celldm(4)=   0.000000  celldm(5)=   0.000000  celldm(6)=   0.000000

     crystal axes: (cart. coord. in units of alat)
               a(1) = (  -0.500000   0.000000   0.500000 )
               a(2) = (   0.000000   0.500000   0.500000 )
               a(3) = (  -0.500000   0.500000   0.000000 )

     reciprocal axes: (cart. coord. in units 2 pi/alat)
               b(1) = ( -1.000000 -1.000000  1.000000 )
               b(2) = (  1.000000  1.000000  1.000000 )
               b(3) = ( -1.000000  1.000000 -1.000000 )

     PseudoPot. # 1 for Ge read from file:
     ../../PP/Ge.pbe-dn-kjpaw_psl.0.2.2.UPF
     MD5 check sum: acf6dd3aa1b4e03129ff8bf786ac0282
     Pseudo is Projector augmented-wave + core cor, Zval = 14.0
     Generated using "atomic" code by A. Dal Corso v.5.0.2 svn rev. 9415
     Shape of augmentation charge: PSQ
     Using radial grid of 1207 points,  6 beta functions with:
                l(1) =   0
                l(2) =   0
                l(3) =   1
                l(4) =   1
                l(5) =   2
                l(6) =   2
     Q(r) pseudized with 0 coefficients

     atomic species   valence    mass     pseudopotential
        Ge            14.00    72.64000     Ge( 1.00)

     48 Sym. Ops., with inversion, found (24 have fractional translation)

   Cartesian axes

     site n.     atom                  positions (alat units)
         1           Ge  tau(   1) = (   0.0000000   0.0000000   0.0000000  )
         2           Ge  tau(   2) = (  -0.2500000   0.2500000   0.2500000  )

     number of k points=    16
                       cart. coord. in units 2pi/alat
        k(    1) = (   0.0000000   0.0000000   0.0000000), wk =   0.0092593
        k(    2) = (  -0.1666667   0.1666667  -0.1666667), wk =   0.0740741
        k(    3) = (  -0.3333333   0.3333333  -0.3333333), wk =   0.0740741
        k(    4) = (   0.5000000  -0.5000000   0.5000000), wk =   0.0370370
        k(    5) = (   0.0000000   0.3333333   0.0000000), wk =   0.0555556
        k(    6) = (  -0.1666667   0.5000000  -0.1666667), wk =   0.2222222
        k(    7) = (   0.6666667  -0.3333333   0.6666667), wk =   0.2222222
        k(    8) = (   0.5000000  -0.1666667   0.5000000), wk =   0.2222222
        k(    9) = (   0.3333333   0.0000000   0.3333333), wk =   0.1111111
        k(   10) = (   0.0000000   0.6666667   0.0000000), wk =   0.0555556
        k(   11) = (   0.8333333  -0.1666667   0.8333333), wk =   0.2222222
        k(   12) = (   0.6666667  -0.0000000   0.6666667), wk =   0.1111111
        k(   13) = (   0.0000000  -1.0000000   0.0000000), wk =   0.0277778
        k(   14) = (   0.6666667  -0.3333333   1.0000000), wk =   0.2222222
        k(   15) = (   0.5000000  -0.1666667   0.8333333), wk =   0.2222222
        k(   16) = (  -0.3333333  -1.0000000   0.0000000), wk =   0.1111111

     Check: negative/imaginary core charge=   -0.000189    0.000000

     Initial potential from superposition of free atoms

     starting charge   27.99847, renormalised to   28.00000
     Starting wfcs are   18 randomized atomic wfcs
     Checking if some PAW data can be deallocated...

     Self-consistent Calculation

     iteration #  1     ecut=    35.00 Ry     beta= 0.70
     Davidson diagonalization with overlap
     ethr =  1.00E-02,  avg # of iterations =  2.0

     Threshold (ethr) on eigenvalues was too large:
     Diagonalizing with lowered threshold

     Davidson diagonalization with overlap
     ethr =  2.80E-04,  avg # of iterations =  2.1

     total energy              =    -628.89818709 Ry
     Harris-Foulkes estimate   =    -628.91590215 Ry
     estimated scf accuracy    <       0.07198157 Ry

[...]

     End of self-consistent calculation

          k = 0.0000 0.0000 0.0000 (   339 PWs)   bands (ev):

     1.3316   1.3316   1.3316   1.4296   1.4296   3.5736   3.5736   3.5736
     4.3093   4.3093   6.6447  34.5127  34.5127  34.5127

          k =-0.1667 0.1667-0.1667 (   362 PWs)   bands (ev):

[...]

     highest occupied level (ev):    34.5127

!    total energy              =    -628.90052677 Ry
     Harris-Foulkes estimate   =    -628.90052677 Ry
     estimated scf accuracy    <          4.1E-10 Ry

     total all-electron energy =     -8393.813788 Ry

     The total energy is the sum of the following terms:

     one-electron contribution =    -149.61325894 Ry
     hartree contribution      =     115.76471407 Ry
     xc contribution           =    -115.78247827 Ry
     ewald contribution        =    -281.54998083 Ry
     one-center paw contrib.   =    -197.71952279 Ry

     convergence has been achieved in   7 iterations

     Forces acting on atoms (cartesian axes, Ry/au):

     atom    1 type  1   force =    -0.00000000   -0.00000000   -0.00000000
     atom    2 type  1   force =    -0.00000000   -0.00000000    0.00000000

     Total force =     0.000000     Total SCF correction =     0.000000

     Computing stress (Cartesian axis) and pressure

          total   stress  (Ry/bohr**3)                   (kbar)     P= 7974.95
   0.05421260   0.00000000  -0.00000000       7974.95      0.00     -0.00
   0.00000000   0.05421260   0.00000000          0.00   7974.95      0.00
  -0.00000000   0.00000000   0.05421260         -0.00      0.00   7974.95

     BFGS Geometry Optimization

     number of scf cycles    =   1
     number of bfgs steps    =   0

     enthalpy new            =    -628.9005267687 Ry

     new trust radius        =       0.5000000000 bohr
     new conv_thr            =       0.0000000100 Ry

     new unit-cell volume =    202.76369 a.u.^3 (    30.04648 Ang^3 )
     density =      8.02900 g/cm^3

CELL_PARAMETERS (alat=  7.50000000)
  -0.621716125  -0.000000000   0.621716125
   0.000000000   0.621716125   0.621716125
  -0.621716125   0.621716125   0.000000000

ATOMIC_POSITIONS (crystal)
Ge       0.000000000   0.000000000   0.000000000    0   0   0
Ge       0.250000000   0.250000000   0.250000000    0   0   0

     Writing output data file germanium.save/
     NEW-OLD atomic charge density approx. for the potential

     Check: negative/imaginary core charge=   -0.000390    0.000000
     extrapolated charge   41.43490, renormalised to   28.00000

[...]

          total   stress  (Ry/bohr**3)                   (kbar)     P=-2255.71
  -0.01533402  -0.00000000  -0.00000000      -2255.71     -0.00     -0.00
  -0.00000000  -0.01533402   0.00000000         -0.00  -2255.71      0.00
  -0.00000000   0.00000000  -0.01533402         -0.00      0.00  -2255.71

[...]

     enthalpy old            =    -628.9005267687 Ry
     enthalpy new            =    -630.0986153384 Ry

     CASE: enthalpy_new < enthalpy_old

[...]

     number of scf cycles    =   4
     number of bfgs steps    =   3

     enthalpy old            =    -630.3420241522 Ry
     enthalpy new            =    -630.3437707242 Ry

     CASE: enthalpy_new < enthalpy_old

     new trust radius        =       0.0013722998 bohr
     new conv_thr            =            1.0E-10 Ry

     new unit-cell volume =    171.25522 a.u.^3 (    25.37741 Ang^3 )
     density =      9.50622 g/cm^3

[...]

ATOMIC_POSITIONS (crystal)
Ge       0.000000000   0.000000000   0.000000000    0   0   0
Ge       0.250000000   0.250000000   0.250000000    0   0   0

     Writing output data file germanium.save/
     NEW-OLD atomic charge density approx. for the potential

     Check: negative/imaginary core charge=   -0.000174    0.000000
     extrapolated charge   28.04403, renormalised to   28.00000

[...]

     bfgs converged in   5 scf cycles and   4 bfgs steps
     (criteria: energy <  1.0E-04 Ry, force <  1.0E-03Ry/Bohr, cell <  5.0E-01kbar)

     End of BFGS Geometry Optimization

     Final enthalpy =    -630.3437886323 Ry
Begin final coordinates
     new unit-cell volume =    171.25522 a.u.^3 (    25.37741 Ang^3 )
     density =      9.50622 g/cm^3

CELL_PARAMETERS (alat=  7.50000000)
  -0.587683297   0.000000000   0.587683297
  -0.000000000   0.587683297   0.587683297
  -0.587683297   0.587683297   0.000000000

ATOMIC_POSITIONS (crystal)
Ge       0.000000000   0.000000000   0.000000000    0   0   0
Ge       0.250000000   0.250000000   0.250000000    0   0   0
End final coordinates

     Writing output data file germanium.save/

     A final scf calculation at the relaxed structure.
     The G-vectors are recalculated for the final unit cell
     Results may differ from those at the preceding step.

     bravais-lattice index     =            2
     lattice parameter (alat)  =       7.5000  a.u.
     unit-cell volume          =     171.2552 (a.u.)^3
     number of atoms/cell      =            2
     number of atomic types    =            1
     number of electrons       =        28.00
     number of Kohn-Sham states=           14
     kinetic-energy cutoff     =      35.0000  Ry
     charge density cutoff     =     140.0000  Ry
     convergence threshold     =      1.0E-10
     mixing beta               =       0.7000
     number of iterations used =            8  plain     mixing
     Exchange-correlation      = SLA PW PBX PBC ( 1  4  3  4 0 0)

     celldm(1)=   7.500000  celldm(2)=   0.000000  celldm(3)=   0.000000
     celldm(4)=   0.000000  celldm(5)=   0.000000  celldm(6)=   0.000000

     crystal axes: (cart. coord. in units of alat)
               a(1) = (  -0.587683   0.000000   0.587683 )
               a(2) = (  -0.000000   0.587683   0.587683 )
               a(3) = (  -0.587683   0.587683   0.000000 )

     reciprocal axes: (cart. coord. in units 2 pi/alat)
               b(1) = ( -0.850798 -0.850798  0.850798 )
               b(2) = (  0.850798  0.850798  0.850798 )
               b(3) = ( -0.850798  0.850798 -0.850798 )

     PseudoPot. # 1 for Ge read from file:
     ../../PP/Ge.pbe-dn-kjpaw_psl.0.2.2.UPF
     MD5 check sum: acf6dd3aa1b4e03129ff8bf786ac0282
     Pseudo is Projector augmented-wave + core cor, Zval = 14.0
     Generated using "atomic" code by A. Dal Corso v.5.0.2 svn rev. 9415
     Shape of augmentation charge: PSQ
     Using radial grid of 1207 points,  6 beta functions with:
                l(1) =   0
                l(2) =   0
                l(3) =   1
                l(4) =   1
                l(5) =   2
                l(6) =   2
     Q(r) pseudized with 0 coefficients

     atomic species   valence    mass     pseudopotential
        Ge            14.00    72.64000     Ge( 1.00)

     48 Sym. Ops., with inversion, found (24 have fractional translation)

   Cartesian axes

     site n.     atom                  positions (alat units)
         1           Ge  tau(   1) = (   0.0000000   0.0000000   0.0000000  )
         2           Ge  tau(   2) = (  -0.2938416   0.2938416   0.2938416  )

     number of k points=    16
                       cart. coord. in units 2pi/alat
        k(    1) = (   0.0000000   0.0000000   0.0000000), wk =   0.0092593
        k(    2) = (  -0.1417997   0.1417997  -0.1417997), wk =   0.0740741
        k(    3) = (  -0.2835995   0.2835995  -0.2835995), wk =   0.0740741
        k(    4) = (   0.4253992  -0.4253992   0.4253992), wk =   0.0370370
        k(    5) = (   0.0000000   0.2835995  -0.0000000), wk =   0.0555556
        k(    6) = (  -0.1417997   0.4253992  -0.1417997), wk =   0.2222222
        k(    7) = (   0.5671989  -0.2835995   0.5671989), wk =   0.2222222
        k(    8) = (   0.4253992  -0.1417997   0.4253992), wk =   0.2222222
        k(    9) = (   0.2835995  -0.0000000   0.2835995), wk =   0.1111111
        k(   10) = (   0.0000000   0.5671989  -0.0000000), wk =   0.0555556
        k(   11) = (   0.7089987  -0.1417997   0.7089987), wk =   0.2222222
        k(   12) = (   0.5671989  -0.0000000   0.5671989), wk =   0.1111111
        k(   13) = (  -0.0000000  -0.8507984   0.0000000), wk =   0.0277778
        k(   14) = (   0.5671989  -0.2835995   0.8507984), wk =   0.2222222
        k(   15) = (   0.4253992  -0.1417997   0.7089987), wk =   0.2222222
        k(   16) = (  -0.2835995  -0.8507984   0.0000000), wk =   0.1111111

     Check: negative/imaginary core charge=   -0.000169    0.000000

     Initial potential from superposition of free atoms

     starting charge   27.99847, renormalised to   28.00000
     Starting wfcs are   18 randomized atomic wfcs
     Checking if some PAW data can be deallocated...

     Self-consistent Calculation

[...]

     total energy              =    -630.61472778 Ry
     Harris-Foulkes estimate   =    -630.61472778 Ry
     estimated scf accuracy    <          7.9E-09 Ry

     iteration #  7     ecut=    35.00 Ry     beta= 0.70
     Davidson diagonalization with overlap
     ethr =  2.82E-11,  avg # of iterations =  2.2

     End of self-consistent calculation

[...]

          k = 0.4254-0.1418 0.7090 (   596 PWs)   bands (ev):

[...]

          k =-0.2836-0.8508 0.0000 (   600 PWs)   bands (ev):

    -8.2329  -8.2329  -7.8041  -7.8041  -7.4896  -7.4896  -7.3449  -7.3449
    -6.8297  -6.8297   7.1296   7.1296  11.6307  11.6307

     highest occupied level (ev):    19.0866

!    total energy              =    -630.61472778 Ry
     Harris-Foulkes estimate   =    -630.61472778 Ry
     estimated scf accuracy    <          4.4E-11 Ry

     total all-electron energy =     -8395.527989 Ry

     The total energy is the sum of the following terms:

     one-electron contribution =    -216.60275641 Ry
     hartree contribution      =     137.73088069 Ry
     xc contribution           =    -114.57511283 Ry
     ewald contribution        =    -239.54226626 Ry
     one-center paw contrib.   =    -197.62547298 Ry

     convergence has been achieved in   7 iterations

     Forces acting on atoms (cartesian axes, Ry/au):

     atom    1 type  1   force =     0.00000000   -0.00000000    0.00000000
     atom    2 type  1   force =    -0.00000000    0.00000000   -0.00000000

     Total force =     0.000000     Total SCF correction =     0.000000

     Computing stress (Cartesian axis) and pressure

          total   stress  (Ry/bohr**3)                   (kbar)     P= 1603.13
   0.01089784  -0.00000000   0.00000000       1603.13     -0.00      0.00
  -0.00000000   0.01089784  -0.00000000         -0.00   1603.13     -0.00
   0.00000000  -0.00000000   0.01089784          0.00     -0.00   1603.13

     Writing output data file germanium.save/

     General routines

     Parallel routines

   This run was terminated on:  16:18:24  10May2022

   JOB DONE.