     Program PHONON v.6.3MaX starts on 12May2022 at 11:42:35

     R & G space division:  proc/nbgrp/npool/nimage =      12

     Reading data from directory:
     calc/germanium.save/

     IMPORTANT: XC functional enforced from input :
     Exchange-correlation      = PBE ( 1  4  3  4 0 0)
     Any further DFT definition will be discarded
     Please, verify this is what you really want

               file Ge.pbe-dn-kjpaw_psl.0.2.2.UPF: wavefunction(s)  4P 3D renormalized

     Check: negative/imaginary core charge=   -0.000166    0.000000

     Dynamical matrices for ( 6, 6, 6)  uniform grid of q-points
     (  30 q-points):
       N         xq(1)         xq(2)         xq(3)
       1   0.000000000   0.000000000   0.000000000
       2   0.124312941   0.124312941   0.000000000
       3   0.248625883   0.248625883   0.000000000
       4  -0.372938824  -0.372938824   0.000000000
       5   0.124312941   0.000000000   0.261880471
       6   0.248625883   0.124312941   0.261880471
       7   0.372938824   0.248625883   0.261880471
       8   0.248625883   0.000000000   0.523760942
       9   0.372938824   0.124312941   0.523760942
      10   0.497251765   0.248625883   0.523760942
      11   0.124312941  -0.124312941   0.523760942
      12  -0.372938824   0.000000000  -0.785641413
      13  -0.248625883   0.124312941  -0.785641413
      14   0.248625883   0.248625883   0.523760942
      15   0.372938824   0.372938824   0.523760942
      16   0.000000000   0.000000000   0.523760942
      17   0.372938824   0.248625883   0.785641413
      18  -0.000000000  -0.124312941   0.785641413
      19  -0.745877648  -0.248625883  -0.523760942
      20  -0.621564706  -0.124312941  -0.523760942
      21  -0.000000000   0.372938824  -0.261880471
      22  -0.621564706  -0.248625883  -0.261880471
      23   0.000000000   0.248625883   0.000000000
      24   0.124312941   0.372938824   0.000000000
      25  -0.497251765  -0.248625883   0.000000000
      26  -0.000000000  -0.000000000   1.047521884
      27  -0.745877648  -0.124312941  -0.261880471
      28  -0.000000000   0.497251765  -0.000000000
      29  -0.621564706  -0.124312941  -0.000000000
      30  -0.745877648  -0.745877648  -1.571282826

     Calculation of q =    0.0000000   0.0000000   0.0000000

     BETA-TIN PHONONS

     bravais-lattice index     =            0
     lattice parameter (alat)  =       7.8793  a.u.
     unit-cell volume          =     279.7989 (a.u.)^3
     number of atoms/cell      =            2
     number of atomic types    =            1
     kinetic-energy cut-off    =      35.0000  Ry
     charge density cut-off    =     140.0000  Ry
     convergence threshold     =      5.0E-14
     beta                      =       0.7000
     number of iterations used =            4
     Exchange-correlation      = PBE ( 1  4  3  4 0 0)

     celldm(1)=   10.56382  celldm(2)=    1.00000  celldm(3)=    0.47469
     celldm(4)=    0.00000  celldm(5)=    0.00000  celldm(6)=    0.00000

     crystal axes: (cart. coord. in units of alat)
               a(1) = ( -0.6704  0.6704  0.3182 )
               a(2) = (  0.6704 -0.6704  0.3182 )
               a(3) = (  0.6704  0.6704 -0.3182 )

     reciprocal axes: (cart. coord. in units 2 pi/alat)
               b(1) = (  0.0000  0.7459  1.5713 )
               b(2) = (  0.7459  0.0000  1.5713 )
               b(3) = (  0.7459  0.7459  0.0000 )

     Atoms inside the unit cell:

     Cartesian axes

     site n.  atom      mass           positions (alat units)
        1     Ge  72.6400   tau(    1) = (   -0.00000    1.00553    0.07955  )
        2     Ge  72.6400   tau(    2) = (    0.67035   -0.33518    0.23866  )

     Computing dynamical matrix for
                    q = (   0.0000000   0.0000000   0.0000000 )

     17 Sym.Ops. (with q -> -q+G )

     G cutoff =  220.1635  (    651 G-vectors)     FFT grid: ( 30, 30, 30)
     number of k points=    30

     PseudoPot. # 1 for Ge read from file:
     ../PP/Ge.pbe-dn-kjpaw_psl.0.2.2.UPF
     MD5 check sum: acf6dd3aa1b4e03129ff8bf786ac0282
     Pseudo is Projector augmented-wave + core cor, Zval = 14.0
     Generated using "atomic" code by A. Dal Corso v.5.0.2 svn rev. 9415
     Shape of augmentation charge: PSQ
     Using radial grid of 1207 points,  6 beta functions with:
                l(1) =   0
                l(2) =   0
                l(3) =   1
                l(4) =   1
                l(5) =   2
                l(6) =   2
     Q(r) pseudized with 0 coefficients

     Mode symmetry, D_4h(4/mmm) point group:

     Electric field:
     Dielectric constant
     Born effective charges in two ways

     Atomic displacements:
     There are   4 irreducible representations

     Representation     1      1 modes -B_1g X_2  M_2  To be done

     Representation     2      2 modes -E_g  X_5  M_5  To be done

     Representation     3      1 modes -A_2u X_4' M_4'  To be done

     Representation     4      2 modes -E_u  X_5' M_5'  To be done

     Alpha used in Ewald sum =   1.3000

     Electric Fields Calculation

      thresh= 1.000E-02 alpha_mix =  0.700 |ddv_scf|^2 =  3.137E-06

[...]

     End of electric fields calculation

          Dielectric constant in cartesian axis

          (     551.453374690       0.000000000      -0.000000000 )
          (       0.000000000     551.453374690      -0.000000000 )
          (      -0.000000000      -0.000000000    3388.051588731 )

          Effective charges (d Force / dE) in cartesian axis

           atom      1   Ge
      Ex  (        0.57357        0.00000        0.00000 )
      Ey  (        0.00000        0.57357        0.00000 )
      Ez  (        0.00000        0.00000       -1.46445 )
           atom      2   Ge
      Ex  (        0.57357        0.00000        0.00000 )
      Ey  (        0.00000        0.57357       -0.00000 )
      Ez  (       -0.00000       -0.00000       -1.46445 )

     Representation #  1 mode #   1

     Self-consistent Calculation

[...]

     End of self-consistent calculation

     Convergence has been achieved

     Representation #  2 modes #   2  3

[...]

     Number of q in the star =    1
     List of q in the star:
          1   0.000000000   0.000000000   0.000000000

          Dielectric constant in cartesian axis

          (     551.453374690       0.000000000      -0.000000000 )
          (       0.000000000     551.453374690      -0.000000000 )
          (      -0.000000000      -0.000000000    3388.051588731 )

          Effective charges (d Force / dE) in cartesian axis

[...]

          Effective charges (d P / du) in cartesian axis

           atom      1   Ge
      Px  (        0.57398       -0.00000        0.00000 )
      Py  (       -0.00000        0.57398       -0.00000 )
      Pz  (        0.00000       -0.00000       -1.46402 )
           atom      2   Ge
      Px  (        0.57398        0.00000        0.00000 )
      Py  (       -0.00000        0.57398       -0.00000 )
      Pz  (       -0.00000       -0.00000       -1.46402 )

     Diagonalizing the dynamical matrix

     q = (    0.000000000   0.000000000   0.000000000 )

     freq (    1) =      -2.486345 [THz] =     -82.935545 [cm-1]
     freq (    2) =      -2.486345 [THz] =     -82.935545 [cm-1]
     freq (    3) =      -1.359730 [THz] =     -45.355722 [cm-1]
     freq (    4) =      -1.359730 [THz] =     -45.355722 [cm-1]
     freq (    5) =       0.753944 [THz] =      25.148857 [cm-1]
     freq (    6) =       1.363775 [THz] =      45.490628 [cm-1]

     Mode symmetry, D_4h(4/mmm) point group:

     freq (  1 -  2) =        -82.9  [cm-1]   --> E_g  X_5  M_5   R
     freq (  3 -  4) =        -45.4  [cm-1]   --> E_u  X_5' M_5'  I
     freq (  5 -  5) =         25.1  [cm-1]   --> A_2u X_4' M_4'  I
     freq (  6 -  6) =         45.5  [cm-1]   --> B_1g X_2  M_2   R

[...]

     Title:
     BETA-TIN PHONONS

     bravais-lattice index     =            0
     lattice parameter (alat)  =       7.8793  a.u.
     unit-cell volume          =     279.7989 (a.u.)^3
     number of atoms/cell      =            2
     number of atomic types    =            1
     number of electrons       =        28.00
     number of Kohn-Sham states=           14
     kinetic-energy cutoff     =      35.0000  Ry
     charge density cutoff     =     140.0000  Ry
     Exchange-correlation      = PBE ( 1  4  3  4 0 0)

[...]

     atomic species   valence    mass     pseudopotential
        Ge            14.00    72.64000     Ge( 1.00)

     16 Sym. Ops., with inversion, found

[...]

     site n.     atom                  positions (alat units)
         1           Ge  tau(   1) = (  -0.0000000   1.0055268   0.0795528  )
         2           Ge  tau(   2) = (   0.6703512  -0.3351756   0.2386585  )

     number of k points=   150

     Number of k-points >= 100: set verbosity='high' to print them.

[...]

     The potential is recalculated from file :
     calc/_ph0/germanium.save/charge-density.dat

     Starting wfcs are   18 atomic wfcs
     Checking if some PAW data can be deallocated...

     Band Structure Calculation
     Davidson diagonalization with overlap

     ethr =  3.57E-11,  avg # of iterations = 12.4

     End of band structure calculation

     Number of k-points >= 100: set verbosity='high' to print the bands.

     highest occupied level (ev):     9.6039

     Writing output data file germanium.save/

[...]

      4 Sym.Ops. (no q -> -q+G )

[...]

     Mode symmetry, C_2v (mm2)  point group:

[...]

     Representation     1      1 modes -A_1  D_1  S_1  To be done

[...]

     freq (  1 -  1) =       -100.2  [cm-1]   --> B_2  D_4  S_4
     freq (  2 -  2) =        -46.7  [cm-1]   --> A_1  D_1  S_1
     freq (  3 -  3) =        -35.6  [cm-1]   --> B_1  D_3  S_3
     freq (  4 -  4) =         41.2  [cm-1]   --> B_2  D_4  S_4
     freq (  5 -  5) =         57.1  [cm-1]   --> B_1  D_3  S_3
     freq (  6 -  6) =         96.8  [cm-1]   --> A_2  D_2  S_2

[...]

     number of k points=    92
                       cart. coord. in units 2pi/alat
        k(    1) = (   0.0000000   0.0000000   0.0000000), wk =   0.0092593
        k(    2) = (  -0.3729388  -0.3729388   0.0000000), wk =   0.0000000
        k(    3) = (   0.1243129   0.1243129   0.0000000), wk =   0.0185185
        k(    4) = (  -0.2486259  -0.2486259   0.0000000), wk =   0.0000000
        k(    5) = (   0.2486259   0.2486259   0.0000000), wk =   0.0185185
        k(    6) = (  -0.1243129  -0.1243129   0.0000000), wk =   0.0000000
        k(    7) = (  -0.3729388  -0.3729388   0.0000000), wk =   0.0092593
        k(    8) = (  -0.7458776  -0.7458776   0.0000000), wk =   0.0000000
        k(    9) = (   0.1243129   0.0000000   0.2618805), wk =   0.0740741
        k(   10) = (  -0.2486259  -0.3729388   0.2618805), wk =   0.0000000
        k(   11) = (   0.2486259   0.1243129   0.2618805), wk =   0.0740741
        k(   12) = (  -0.1243129  -0.2486259   0.2618805), wk =   0.0000000
        k(   13) = (   0.3729388   0.2486259   0.2618805), wk =   0.0740741
        k(   14) = (   0.0000000  -0.1243129   0.2618805), wk =   0.0000000
        k(   15) = (   0.2486259   0.0000000   0.5237609), wk =   0.0740741
[...]

          k =-0.3729-0.3729 0.0000 (   990 PWs)   bands (ev):

[...]

     Representation     1      2 modes -  To be done

[...]

     Mode symmetry, C_s (m)     point group:

[...]

     Representation     1      1 modes -A'  To be done

[...]

     Representation     5      1 modes -A''  To be done

[...]

     freq (  1 -  1) =       -145.6  [cm-1]   --> A'
     freq (  2 -  2) =        -74.0  [cm-1]   --> A'
     freq (  3 -  3) =        -71.1  [cm-1]   --> A''
     freq (  4 -  4) =        -37.2  [cm-1]   --> A''
     freq (  5 -  5) =         65.3  [cm-1]   --> A'
     freq (  6 -  6) =        107.7  [cm-1]   --> A'

[...]

     No symmetry!

[...]

     Mode symmetry, C_1 (1)     point group:

[...]

     Representation     1      1 modes -A  To be done

[...]

     freq (  1 -  1) =       -159.4  [cm-1]   --> A
     freq (  2 -  2) =        -96.8  [cm-1]   --> A
     freq (  3 -  3) =        -49.6  [cm-1]   --> A
     freq (  4 -  4) =         73.4  [cm-1]   --> A
     freq (  5 -  5) =        107.7  [cm-1]   --> A
     freq (  6 -  6) =        121.3  [cm-1]   --> A

[...]

     freq (  1 -  1) =        -64.4  [cm-1]   --> A''
     freq (  2 -  2) =         22.2  [cm-1]   --> A'
     freq (  3 -  3) =        113.3  [cm-1]   --> A'
     freq (  4 -  4) =        163.9  [cm-1]   --> A'
     freq (  5 -  5) =        174.0  [cm-1]   --> A''
     freq (  6 -  6) =        243.8  [cm-1]   --> A'

[...]

     freq (  1 -  1) =       -112.5  [cm-1]   --> A''
     freq (  2 -  2) =        -72.1  [cm-1]   --> A'
     freq (  3 -  3) =        -16.5  [cm-1]   --> A'
     freq (  4 -  4) =         26.2  [cm-1]   --> A''
     freq (  5 -  5) =        120.5  [cm-1]   --> A''
     freq (  6 -  6) =        197.1  [cm-1]   --> A'

[...]

     freq (  1 -  1) =        -45.1  [cm-1]   --> A''
     freq (  2 -  2) =        -42.7  [cm-1]   --> A'
     freq (  3 -  3) =         95.3  [cm-1]   --> A'
     freq (  4 -  4) =        161.6  [cm-1]   --> A''
     freq (  5 -  5) =        227.2  [cm-1]   --> A'
     freq (  6 -  6) =        283.2  [cm-1]   --> A''

[...]

     Mode symmetry, C_2h (2/m)  point group:

[...]

     Representation     1      1 modes -A_g  To be done

[...]

     Representation     3      1 modes -B_g  To be done

     Representation     4      1 modes -A_u  To be done

[...]

     Representation     6      1 modes -B_u  To be done

[...]

     Mode symmetry, C_2h (2/m)  point group:

     freq (  1 -  1) =        -62.5  [cm-1]   --> B_u
     freq (  2 -  2) =        -28.9  [cm-1]   --> A_u
     freq (  3 -  3) =        -17.4  [cm-1]   --> B_g
     freq (  4 -  4) =         50.7  [cm-1]   --> A_g
     freq (  5 -  5) =        171.0  [cm-1]   --> B_u
     freq (  6 -  6) =        210.6  [cm-1]   --> A_g

[...]

     freq (  1 -  1) =        -68.7  [cm-1]   --> A'
     freq (  2 -  2) =        -67.5  [cm-1]   --> A''
     freq (  3 -  3) =        -11.2  [cm-1]   --> A'
     freq (  4 -  4) =         37.6  [cm-1]   --> A''
     freq (  5 -  5) =        142.2  [cm-1]   --> A'
     freq (  6 -  6) =        162.8  [cm-1]   --> A''

[...]

     Mode symmetry, C_4v (4mm)  point group:

[...]

     Representation     3      2 modes -E    G_5 D_5  To be done

[...]

     freq (  1 -  2) =        -66.9  [cm-1]   --> E    G_5 D_5
     freq (  3 -  3) =        136.2  [cm-1]   --> A_1  G_1 D_1
     freq (  4 -  5) =        154.9  [cm-1]   --> E    G_5 D_5
     freq (  6 -  6) =        160.5  [cm-1]   --> B_1  G_3 D_2

[...]

     freq (  1 -  1) =        -52.7  [cm-1]   --> A'
     freq (  2 -  2) =        -40.1  [cm-1]   --> A''
     freq (  3 -  3) =        115.0  [cm-1]   --> A'
     freq (  4 -  4) =        184.6  [cm-1]   --> A'
     freq (  5 -  5) =        196.2  [cm-1]   --> A''
     freq (  6 -  6) =        250.2  [cm-1]   --> A'

[...]

     freq (  1 -  1) =       -241.8  [cm-1]   --> A'
     freq (  2 -  2) =        -62.2  [cm-1]   --> A''
     freq (  3 -  3) =        -51.1  [cm-1]   --> A'
     freq (  4 -  4) =         28.9  [cm-1]   --> A''
     freq (  5 -  5) =        119.3  [cm-1]   --> A'
     freq (  6 -  6) =        124.3  [cm-1]   --> A''

[...]

     freq (  1 -  1) =        -71.7  [cm-1]   --> A'
     freq (  2 -  2) =        -36.6  [cm-1]   --> A''
     freq (  3 -  3) =        -28.2  [cm-1]   --> A''
     freq (  4 -  4) =         66.0  [cm-1]   --> A'
     freq (  5 -  5) =        108.8  [cm-1]   --> A'
     freq (  6 -  6) =        134.2  [cm-1]   --> A'

[...]

     No symmetry!

[...]

     Representation     6      1 modes -A  To be done

[...]

     Mode symmetry, C_1 (1)     point group:

     freq (  1 -  1) =       -171.5  [cm-1]   --> A
     freq (  2 -  2) =        -36.0  [cm-1]   --> A
     freq (  3 -  3) =        -29.4  [cm-1]   --> A
     freq (  4 -  4) =         51.1  [cm-1]   --> A
     freq (  5 -  5) =         87.4  [cm-1]   --> A
     freq (  6 -  6) =        121.3  [cm-1]   --> A

[...]

       0h

[...]

     freq (  1 -  1) =        -73.3  [cm-1]   --> A'
     freq (  2 -  2) =         43.2  [cm-1]   --> A'
     freq (  3 -  3) =         55.2  [cm-1]   --> A''
     freq (  4 -  4) =         79.3  [cm-1]   --> A'
     freq (  5 -  5) =         87.8  [cm-1]   --> A''
     freq (  6 -  6) =        246.2  [cm-1]   --> A''

[...]

     Representation     4      2 modes -E    G_5 D_5  To be done

[...]

     Mode symmetry, C_4v (4mm)  point group:

     freq (  1 -  2) =        -89.3  [cm-1]   --> E    G_5 D_5
     freq (  3 -  3) =         45.2  [cm-1]   --> A_1  G_1 D_1
     freq (  4 -  5) =         69.6  [cm-1]   --> E    G_5 D_5
     freq (  6 -  6) =        100.0  [cm-1]   --> B_1  G_3 D_2

[...]

     Representation     4      1 modes -A'  To be done

[...]

     Representation     6      1 modes -A''  To be done

[...]

     Mode symmetry, C_s (m)     point group:

     freq (  1 -  1) =        -80.5  [cm-1]   --> A'
     freq (  2 -  2) =        -36.6  [cm-1]   --> A''
     freq (  3 -  3) =        -29.2  [cm-1]   --> A'
     freq (  4 -  4) =         43.5  [cm-1]   --> A''
     freq (  5 -  5) =        107.2  [cm-1]   --> A'
     freq (  6 -  6) =        123.2  [cm-1]   --> A'

[...]

     Representation     6      1 modes -B_2  D_4  S_4  To be done

[...]

     Representation #  6 mode #   6

[...]

     Mode symmetry, C_2v (mm2)  point group:

     freq (  1 -  1) =        -37.3  [cm-1]   --> B_1  D_3  S_3
     freq (  2 -  2) =         49.2  [cm-1]   --> B_2  D_4  S_4
     freq (  3 -  3) =         73.9  [cm-1]   --> A_1  D_1  S_1
     freq (  4 -  4) =        127.3  [cm-1]   --> A_1  D_1  S_1
     freq (  5 -  5) =        171.0  [cm-1]   --> A_2  D_2  S_2
     freq (  6 -  6) =        184.2  [cm-1]   --> B_2  D_4  S_4

[...]

     number of k points=   150

     Number of k-points >= 100: set verbosity='high' to print them.

[...]

     Number of k-points >= 100: set verbosity='high' to print the bands.

[...]

      4 Sym.Ops. (no q -> -q+G )

[...]

     Calculation of q =   -0.7458776  -0.7458776  -1.5712828

     Title:
     BETA-TIN PHONONS

     bravais-lattice index     =            0
     lattice parameter (alat)  =       7.8793  a.u.
     unit-cell volume          =     279.7989 (a.u.)^3
     number of atoms/cell      =            2
     number of atomic types    =            1
     number of electrons       =        28.00
     number of Kohn-Sham states=           14
     kinetic-energy cutoff     =      35.0000  Ry
     charge density cutoff     =     140.0000  Ry
     Exchange-correlation      = PBE ( 1  4  3  4 0 0)

[...]

     atomic species   valence    mass     pseudopotential
        Ge            14.00    72.64000     Ge( 1.00)

     16 Sym. Ops., with inversion, found

[...]

     site n.     atom                  positions (alat units)
         1           Ge  tau(   1) = (  -0.0000000   1.0055268   0.0795528  )
         2           Ge  tau(   2) = (   0.6703512  -0.3351756   0.2386585  )

     number of k points=    60
                       cart. coord. in units 2pi/alat
        k(    1) = (   0.0000000   0.0000000   0.0000000), wk =   0.0092593
        k(    2) = (  -0.7458776  -0.7458776  -1.5712828), wk =   0.0000000
        k(    3) = (   0.1243129   0.1243129   0.0000000), wk =   0.0370370
        k(    4) = (  -0.6215647  -0.6215647  -1.5712828), wk =   0.0000000
        k(    5) = (   0.2486259   0.2486259   0.0000000), wk =   0.0370370
        k(    6) = (  -0.4972518  -0.4972518  -1.5712828), wk =   0.0000000
        k(    7) = (  -0.3729388  -0.3729388   0.0000000), wk =   0.0185185
        k(    8) = (  -1.1188165  -1.1188165  -1.5712828), wk =   0.0000000
        k(    9) = (   0.1243129   0.0000000   0.2618805), wk =   0.0740741
        k(   10) = (  -0.6215647  -0.7458776  -1.3094024), wk =   0.0000000
        k(   11) = (   0.2486259   0.1243129   0.2618805), wk =   0.1481481
        k(   12) = (  -0.4972518  -0.6215647  -1.3094024), wk =   0.0000000
        k(   13) = (   0.3729388   0.2486259   0.2618805), wk =   0.1481481
        k(   14) = (  -0.3729388  -0.4972518  -1.3094024), wk =   0.0000000
        k(   15) = (   0.2486259   0.0000000   0.5237609), wk =   0.0740741
        k(   16) = (  -0.4972518  -0.7458776  -1.0475219), wk =   0.0000000
        k(   17) = (   0.3729388   0.1243129   0.5237609), wk =   0.1481481
        k(   18) = (  -0.3729388  -0.6215647  -1.0475219), wk =   0.0000000
        k(   19) = (   0.4972518   0.2486259   0.5237609), wk =   0.0740741
        k(   20) = (  -0.2486259  -0.4972518  -1.0475219), wk =   0.0000000
        k(   21) = (   0.1243129  -0.1243129   0.5237609), wk =   0.0740741
        k(   22) = (  -0.6215647  -0.8701906  -1.0475219), wk =   0.0000000
        k(   23) = (  -0.3729388   0.0000000  -0.7856414), wk =   0.0370370
        k(   24) = (  -1.1188165  -0.7458776  -2.3569242), wk =   0.0000000
        k(   25) = (  -0.2486259   0.1243129  -0.7856414), wk =   0.1481481
        k(   26) = (  -0.9945035  -0.6215647  -2.3569242), wk =   0.0000000
        k(   27) = (   0.2486259   0.2486259   0.5237609), wk =   0.0740741
        k(   28) = (  -0.4972518  -0.4972518  -1.0475219), wk =   0.0000000
        k(   29) = (   0.3729388   0.3729388   0.5237609), wk =   0.0370370
        k(   30) = (  -0.3729388  -0.3729388  -1.0475219), wk =   0.0000000
        k(   31) = (   0.0000000   0.0000000   0.5237609), wk =   0.0185185
        k(   32) = (  -0.7458776  -0.7458776  -1.0475219), wk =   0.0000000
        k(   33) = (   0.3729388   0.2486259   0.7856414), wk =   0.0740741
        k(   34) = (  -0.3729388  -0.4972518  -0.7856414), wk =   0.0000000
        k(   35) = (  -0.0000000  -0.1243129   0.7856414), wk =   0.0740741
        k(   36) = (  -0.7458776  -0.8701906  -0.7856414), wk =   0.0000000
        k(   37) = (  -0.7458776  -0.2486259  -0.5237609), wk =   0.0740741
        k(   38) = (  -1.4917553  -0.9945035  -2.0950438), wk =   0.0000000
        k(   39) = (  -0.6215647  -0.1243129  -0.5237609), wk =   0.0740741
        k(   40) = (  -1.3674424  -0.8701906  -2.0950438), wk =   0.0000000
        k(   41) = (  -0.0000000   0.3729388  -0.2618805), wk =   0.0740741
        k(   42) = (  -0.7458776  -0.3729388  -1.8331633), wk =   0.0000000
        k(   43) = (  -0.6215647  -0.2486259  -0.2618805), wk =   0.1481481
        k(   44) = (  -1.3674424  -0.9945035  -1.8331633), wk =   0.0000000
        k(   45) = (   0.0000000   0.2486259   0.0000000), wk =   0.0370370
        k(   46) = (  -0.7458776  -0.4972518  -1.5712828), wk =   0.0000000
        k(   47) = (   0.1243129   0.3729388   0.0000000), wk =   0.0740741
        k(   48) = (  -0.6215647  -0.3729388  -1.5712828), wk =   0.0000000
        k(   49) = (  -0.4972518  -0.2486259   0.0000000), wk =   0.0370370
        k(   50) = (  -1.2431294  -0.9945035  -1.5712828), wk =   0.0000000
        k(   51) = (  -0.0000000  -0.0000000   1.0475219), wk =   0.0185185
        k(   52) = (  -0.7458776  -0.7458776  -0.5237609), wk =   0.0000000
        k(   53) = (  -0.7458776  -0.1243129  -0.2618805), wk =   0.0740741
        k(   54) = (  -1.4917553  -0.8701906  -1.8331633), wk =   0.0000000
        k(   55) = (  -0.0000000   0.4972518  -0.0000000), wk =   0.0370370
        k(   56) = (  -0.7458776  -0.2486259  -1.5712828), wk =   0.0000000
        k(   57) = (  -0.6215647  -0.1243129  -0.0000000), wk =   0.0370370
        k(   58) = (  -1.3674424  -0.8701906  -1.5712828), wk =   0.0000000
        k(   59) = (  -0.7458776  -0.7458776  -1.5712828), wk =   0.0092593
        k(   60) = (  -1.4917553  -1.4917553  -3.1425657), wk =   0.0000000

     Check: negative/imaginary core charge=   -0.000166    0.000000

     The potential is recalculated from file :
     calc/_ph0/germanium.save/charge-density.dat

     Starting wfcs are   18 atomic wfcs
     Checking if some PAW data can be deallocated...

     Band Structure Calculation
     Davidson diagonalization with overlap

     ethr =  3.57E-11,  avg # of iterations = 11.9

     End of band structure calculation

[...]

          k = 0.1243 0.3729 0.0000 (   984 PWs)   bands (ev):

[...]

          k =-1.4918-1.4918-3.1426 (   969 PWs)   bands (ev):

   -15.2355 -15.2156 -15.1883 -15.1322 -15.0399 -15.0329 -15.0329 -15.0316
   -15.0316 -15.0069  -3.0033   3.5464   6.8838   6.8838

     highest occupied level (ev):     9.6039

     Writing output data file germanium.save/

     BETA-TIN PHONONS

     bravais-lattice index     =            0
     lattice parameter (alat)  =       7.8793  a.u.
     unit-cell volume          =     279.7989 (a.u.)^3
     number of atoms/cell      =            2
     number of atomic types    =            1
     kinetic-energy cut-off    =      35.0000  Ry
     charge density cut-off    =     140.0000  Ry
     convergence threshold     =      5.0E-14
     beta                      =       0.7000
     number of iterations used =            4
     Exchange-correlation      = PBE ( 1  4  3  4 0 0)

     celldm(1)=   10.56382  celldm(2)=    1.00000  celldm(3)=    0.47469
     celldm(4)=    0.00000  celldm(5)=    0.00000  celldm(6)=    0.00000

     crystal axes: (cart. coord. in units of alat)
               a(1) = ( -0.6704  0.6704  0.3182 )
               a(2) = (  0.6704 -0.6704  0.3182 )
               a(3) = (  0.6704  0.6704 -0.3182 )

     reciprocal axes: (cart. coord. in units 2 pi/alat)
               b(1) = (  0.0000  0.7459  1.5713 )
               b(2) = (  0.7459  0.0000  1.5713 )
               b(3) = (  0.7459  0.7459  0.0000 )

     Atoms inside the unit cell:

     Cartesian axes

     site n.  atom      mass           positions (alat units)
        1     Ge  72.6400   tau(    1) = (   -0.00000    1.00553    0.07955  )
        2     Ge  72.6400   tau(    2) = (    0.67035   -0.33518    0.23866  )

     Computing dynamical matrix for
                    q = (  -0.7458776  -0.7458776  -1.5712828 )

     17 Sym.Ops. (with q -> -q+G )

     G cutoff =  220.1635  (    651 G-vectors)     FFT grid: ( 30, 30, 30)
     number of k points=    60

     PseudoPot. # 1 for Ge read from file:
     ../PP/Ge.pbe-dn-kjpaw_psl.0.2.2.UPF
     MD5 check sum: acf6dd3aa1b4e03129ff8bf786ac0282
     Pseudo is Projector augmented-wave + core cor, Zval = 14.0
     Generated using "atomic" code by A. Dal Corso v.5.0.2 svn rev. 9415
     Shape of augmentation charge: PSQ
     Using radial grid of 1207 points,  6 beta functions with:
                l(1) =   0
                l(2) =   0
                l(3) =   1
                l(4) =   1
                l(5) =   2
                l(6) =   2
     Q(r) pseudized with 0 coefficients

     Atomic displacements:
     There are   3 irreducible representations

[...]

     Representation     3      2 modes -  To be done

     Alpha used in Ewald sum =   1.3000

[...]

     Representation #  3 modes #   5  6

     Self-consistent Calculation

[...]

      thresh= 4.611E-08 alpha_mix =  0.700 |ddv_scf|^2 =  2.695E-15

     End of self-consistent calculation

     Convergence has been achieved

     Number of q in the star =    1
     List of q in the star:
          1  -0.745877648  -0.745877648  -1.571282826

     Diagonalizing the dynamical matrix

     q = (   -0.745877648  -0.745877648  -1.571282826 )

     freq (    1) =      -1.874097 [THz] =     -62.513152 [cm-1]
     freq (    2) =      -1.874097 [THz] =     -62.513152 [cm-1]
     freq (    3) =       1.910208 [THz] =      63.717670 [cm-1]
     freq (    4) =       1.910208 [THz] =      63.717670 [cm-1]
     freq (    5) =       2.667435 [THz] =      88.976060 [cm-1]
     freq (    6) =       2.667435 [THz] =      88.976060 [cm-1]

     General routines

     Parallel routines

      13h
     INITIALIZATION:

     DYNAMICAL MATRIX:

      General routines

      13h

   This run was terminated on:  12:56: 1  12May2022

   JOB DONE.