     Program PWSCF v.6.3MaX starts on 12May2022 at 10:50:24

     R & G space division:  proc/nbgrp/npool/nimage =      12
     Waiting for input...
     Reading input from standard input

     Current dimensions of program PWSCF are:
     Max number of different atomic species (ntypx) = 10
     Max number of k-points (npk) =  40000
     Max angular momentum in pseudopotentials (lmaxx) =  3
               file Ge.pbe-dn-kjpaw_psl.0.2.2.UPF: wavefunction(s)  4P 3D renormalized

     bravais-lattice index     =            0
     lattice parameter (alat)  =       7.8793  a.u.
     unit-cell volume          =     279.7989 (a.u.)^3
     number of atoms/cell      =            2
     number of atomic types    =            1
     number of electrons       =        28.00
     number of Kohn-Sham states=           14
     kinetic-energy cutoff     =      35.0000  Ry
     charge density cutoff     =     140.0000  Ry
     convergence threshold     =      1.0E-08
     mixing beta               =       0.7000
     number of iterations used =            8  plain     mixing
     Exchange-correlation      = SLA PW PBX PBC ( 1  4  3  4 0 0)

     celldm(1)=   7.879316  celldm(2)=   0.000000  celldm(3)=   0.000000
     celldm(4)=   0.000000  celldm(5)=   0.000000  celldm(6)=   0.000000

     crystal axes: (cart. coord. in units of alat)
               a(1) = (  -0.670351   0.670351   0.318211 )
               a(2) = (   0.670351  -0.670351   0.318211 )
               a(3) = (   0.670351   0.670351  -0.318211 )

     reciprocal axes: (cart. coord. in units 2 pi/alat)
               b(1) = (  0.000000  0.745878  1.571283 )
               b(2) = (  0.745878  0.000000  1.571283 )
               b(3) = (  0.745878  0.745878  0.000000 )

     PseudoPot. # 1 for Ge read from file:
     ../PP/Ge.pbe-dn-kjpaw_psl.0.2.2.UPF
     MD5 check sum: acf6dd3aa1b4e03129ff8bf786ac0282
     Pseudo is Projector augmented-wave + core cor, Zval = 14.0
     Generated using "atomic" code by A. Dal Corso v.5.0.2 svn rev. 9415
     Shape of augmentation charge: PSQ
     Using radial grid of 1207 points,  6 beta functions with:
                l(1) =   0
                l(2) =   0
                l(3) =   1
                l(4) =   1
                l(5) =   2
                l(6) =   2
     Q(r) pseudized with 0 coefficients

     atomic species   valence    mass     pseudopotential
        Ge            14.00    72.64000     Ge( 1.00)

     16 Sym. Ops., with inversion, found (12 have fractional translation)

   Cartesian axes

     site n.     atom                  positions (alat units)
         1           Ge  tau(   1) = (  -0.0000000   1.0055268   0.0795528  )
         2           Ge  tau(   2) = (   0.6703512  -0.3351756   0.2386585  )

     number of k points=    30
                       cart. coord. in units 2pi/alat
        k(    1) = (   0.0000000   0.0000000   0.0000000), wk =   0.0092593
        k(    2) = (   0.1243129   0.1243129   0.0000000), wk =   0.0370370
        k(    3) = (   0.2486259   0.2486259   0.0000000), wk =   0.0370370
        k(    4) = (  -0.3729388  -0.3729388   0.0000000), wk =   0.0185185
        k(    5) = (   0.1243129   0.0000000   0.2618805), wk =   0.0740741
        k(    6) = (   0.2486259   0.1243129   0.2618805), wk =   0.1481481
        k(    7) = (   0.3729388   0.2486259   0.2618805), wk =   0.1481481
        k(    8) = (   0.2486259   0.0000000   0.5237609), wk =   0.0740741
        k(    9) = (   0.3729388   0.1243129   0.5237609), wk =   0.1481481
        k(   10) = (   0.4972518   0.2486259   0.5237609), wk =   0.0740741
        k(   11) = (   0.1243129  -0.1243129   0.5237609), wk =   0.0740741
        k(   12) = (  -0.3729388   0.0000000  -0.7856414), wk =   0.0370370
        k(   13) = (  -0.2486259   0.1243129  -0.7856414), wk =   0.1481481
        k(   14) = (   0.2486259   0.2486259   0.5237609), wk =   0.0740741
        k(   15) = (   0.3729388   0.3729388   0.5237609), wk =   0.0370370
        k(   16) = (   0.0000000   0.0000000   0.5237609), wk =   0.0185185
        k(   17) = (   0.3729388   0.2486259   0.7856414), wk =   0.0740741
        k(   18) = (  -0.0000000  -0.1243129   0.7856414), wk =   0.0740741
        k(   19) = (  -0.7458776  -0.2486259  -0.5237609), wk =   0.0740741
        k(   20) = (  -0.6215647  -0.1243129  -0.5237609), wk =   0.0740741
        k(   21) = (  -0.0000000   0.3729388  -0.2618805), wk =   0.0740741
        k(   22) = (  -0.6215647  -0.2486259  -0.2618805), wk =   0.1481481
        k(   23) = (   0.0000000   0.2486259   0.0000000), wk =   0.0370370
        k(   24) = (   0.1243129   0.3729388   0.0000000), wk =   0.0740741
        k(   25) = (  -0.4972518  -0.2486259   0.0000000), wk =   0.0370370
        k(   26) = (  -0.0000000  -0.0000000   1.0475219), wk =   0.0185185
        k(   27) = (  -0.7458776  -0.1243129  -0.2618805), wk =   0.0740741
        k(   28) = (  -0.0000000   0.4972518  -0.0000000), wk =   0.0370370
        k(   29) = (  -0.6215647  -0.1243129  -0.0000000), wk =   0.0370370
        k(   30) = (  -0.7458776  -0.7458776  -1.5712828), wk =   0.0092593

     Check: negative/imaginary core charge=   -0.000166    0.000000

     Initial potential from superposition of free atoms

     starting charge   27.99847, renormalised to   28.00000
     Starting wfcs are   18 randomized atomic wfcs
     Checking if some PAW data can be deallocated...

     Self-consistent Calculation

     iteration #  1     ecut=    35.00 Ry     beta= 0.70
     Davidson diagonalization with overlap
     ethr =  1.00E-02,  avg # of iterations =  1.8

     Threshold (ethr) on eigenvalues was too large:
     Diagonalizing with lowered threshold

     Davidson diagonalization with overlap
     ethr =  2.39E-05,  avg # of iterations =  3.6

     total energy              =    -631.01012978 Ry
     Harris-Foulkes estimate   =    -631.01191156 Ry
     estimated scf accuracy    <       0.00671632 Ry

[...]

     total energy              =    -631.01110768 Ry
     Harris-Foulkes estimate   =    -631.01110768 Ry
     estimated scf accuracy    <       0.00000002 Ry

     iteration #  6     ecut=    35.00 Ry     beta= 0.70
     Davidson diagonalization with overlap
     ethr =  5.39E-11,  avg # of iterations =  3.6

     End of self-consistent calculation

          k = 0.0000 0.0000 0.0000 (   969 PWs)   bands (ev):

   -15.2357 -15.2158 -15.1886 -15.1326 -15.0403 -15.0331 -15.0331 -15.0318
   -15.0318 -15.0072  -3.0033   3.5464   6.8838   6.8838

[...]

          k =-0.3729-0.3729 0.0000 (   990 PWs)   bands (ev):

[...]

          k = 0.1243 0.3729 0.0000 (   984 PWs)   bands (ev):

[...]

          k =-0.7459-0.7459-1.5713 (   976 PWs)   bands (ev):

   -15.2314 -15.2314 -15.0986 -15.0986 -15.0794 -15.0794 -15.0329 -15.0329
   -15.0309 -15.0309   0.2035   0.2035   4.1494   4.1494

     highest occupied level (ev):     9.6038

!    total energy              =    -631.01110769 Ry
     Harris-Foulkes estimate   =    -631.01110769 Ry
     estimated scf accuracy    <          2.1E-09 Ry

     total all-electron energy =     -8395.924369 Ry

     The total energy is the sum of the following terms:

     one-electron contribution =    -252.61867207 Ry
     hartree contribution      =     147.69577569 Ry
     xc contribution           =    -113.59393793 Ry
     ewald contribution        =    -214.94275117 Ry
     one-center paw contrib.   =    -197.55152221 Ry

     convergence has been achieved in   6 iterations

     Computing stress (Cartesian axis) and pressure

          total   stress  (Ry/bohr**3)                   (kbar)     P=    0.89
   0.00001454   0.00000000  -0.00000000          2.14      0.00     -0.00
   0.00000000   0.00001454  -0.00000000          0.00      2.14     -0.00
   0.00000000  -0.00000000  -0.00001083          0.00     -0.00     -1.59

     Writing output data file germanium.save/

     General routines

     Parallel routines

   This run was terminated on:  10:50:27  12May2022

   JOB DONE.