     Program PHONON v.6.3MaX starts on 11May2022 at 12:58:28

     R & G space division:  proc/nbgrp/npool/nimage =      12

     Reading data from directory:
     calc/germanium.save/

     IMPORTANT: XC functional enforced from input :
     Exchange-correlation      = PBE ( 1  4  3  4 0 0)
     Any further DFT definition will be discarded
     Please, verify this is what you really want

               file Ge.pbe-dn-kjpaw_psl.0.2.2.UPF: wavefunction(s)  4P 3D renormalized

     Check: negative/imaginary core charge=   -0.000149    0.000000

     Dynamical matrices for ( 8, 8, 8)  uniform grid of q-points
     (  29 q-points):
       N         xq(1)         xq(2)         xq(3)
       1   0.000000000   0.000000000   0.000000000
       2  -0.125000000   0.125000000  -0.125000000
       3  -0.250000000   0.250000000  -0.250000000
       4  -0.375000000   0.375000000  -0.375000000
       5   0.500000000  -0.500000000   0.500000000
       6   0.000000000   0.250000000   0.000000000
       7  -0.125000000   0.375000000  -0.125000000
       8  -0.250000000   0.500000000  -0.250000000
       9   0.625000000  -0.375000000   0.625000000
      10   0.500000000  -0.250000000   0.500000000
      11   0.375000000  -0.125000000   0.375000000
      12   0.250000000   0.000000000   0.250000000
      13   0.000000000   0.500000000   0.000000000
      14  -0.125000000   0.625000000  -0.125000000
      15   0.750000000  -0.250000000   0.750000000
      16   0.625000000  -0.125000000   0.625000000
      17   0.500000000   0.000000000   0.500000000
      18   0.000000000   0.750000000   0.000000000
      19   0.875000000  -0.125000000   0.875000000
      20   0.750000000   0.000000000   0.750000000
      21   0.000000000  -1.000000000   0.000000000
      22  -0.250000000   0.500000000   0.000000000
      23   0.625000000  -0.375000000   0.875000000
      24   0.500000000  -0.250000000   0.750000000
      25   0.750000000  -0.250000000   1.000000000
      26   0.625000000  -0.125000000   0.875000000
      27   0.500000000   0.000000000   0.750000000
      28  -0.250000000  -1.000000000   0.000000000
      29  -0.500000000  -1.000000000   0.000000000

     Calculation of q =    0.0000000   0.0000000   0.0000000

     YOU NEED TO PUT HERE SOME TITLE :)

     bravais-lattice index     =            2
     lattice parameter (alat)  =      11.0000  a.u.
     unit-cell volume          =     332.7500 (a.u.)^3
     number of atoms/cell      =            2
     number of atomic types    =            1
     kinetic-energy cut-off    =      35.0000  Ry
     charge density cut-off    =     140.0000  Ry
     convergence threshold     =      5.0E-14
     beta                      =       0.7000
     number of iterations used =            4
     Exchange-correlation      = PBE ( 1  4  3  4 0 0)

     celldm(1)=   11.00000  celldm(2)=    0.00000  celldm(3)=    0.00000
     celldm(4)=    0.00000  celldm(5)=    0.00000  celldm(6)=    0.00000

     crystal axes: (cart. coord. in units of alat)
               a(1) = ( -0.5000  0.0000  0.5000 )
               a(2) = (  0.0000  0.5000  0.5000 )
               a(3) = ( -0.5000  0.5000  0.0000 )

     reciprocal axes: (cart. coord. in units 2 pi/alat)
               b(1) = ( -1.0000 -1.0000  1.0000 )
               b(2) = (  1.0000  1.0000  1.0000 )
               b(3) = ( -1.0000  1.0000 -1.0000 )

     Atoms inside the unit cell:

     Cartesian axes

     site n.  atom      mass           positions (alat units)
        1     Ge  72.6400   tau(    1) = (    0.00000    0.00000    0.00000  )
        2     Ge  72.6400   tau(    2) = (   -0.25000    0.25000    0.25000  )

     Computing dynamical matrix for
                    q = (   0.0000000   0.0000000   0.0000000 )

     25 Sym.Ops. (with q -> -q+G )

     G cutoff =  429.0952  (    780 G-vectors)     FFT grid: ( 30, 30, 30)
     number of k points=    16

     PseudoPot. # 1 for Ge read from file:
     ../PP/Ge.pbe-dn-kjpaw_psl.0.2.2.UPF
     MD5 check sum: acf6dd3aa1b4e03129ff8bf786ac0282
     Pseudo is Projector augmented-wave + core cor, Zval = 14.0
     Generated using "atomic" code by A. Dal Corso v.5.0.2 svn rev. 9415
     Shape of augmentation charge: PSQ
     Using radial grid of 1207 points,  6 beta functions with:
                l(1) =   0
                l(2) =   0
                l(3) =   1
                l(4) =   1
                l(5) =   2
                l(6) =   2
     Q(r) pseudized with 0 coefficients

     Mode symmetry, T_d (-43m)  point group:

     Electric field:
     Dielectric constant
     Born effective charges in two ways

     Atomic displacements:
     There are   2 irreducible representations

     Representation     1      3 modes -T_2  G_15 P_4  To be done

[...]

     Alpha used in Ewald sum =   1.3000

     Electric Fields Calculation

      thresh= 1.000E-02 alpha_mix =  0.700 |ddv_scf|^2 =  2.721E+00

[...]

     End of electric fields calculation

          Dielectric constant in cartesian axis

          (   49302.980938733      -0.000000000       0.000000000 )
          (       0.000000000   49302.980938733       0.000000000 )
          (       0.000000000      -0.000000000   49302.980938733 )

          Effective charges (d Force / dE) in cartesian axis

           atom      1   Ge
      Ex  (       20.76485       -0.00000        0.00000 )
      Ey  (        0.00000       20.76485       -0.00000 )
      Ez  (       -0.00000       -0.00000       20.76485 )
           atom      2   Ge
      Ex  (      -21.66847        0.00000       -0.00000 )
      Ey  (        0.00000      -21.66847       -0.00000 )
      Ez  (       -0.00000       -0.00000      -21.66847 )

     Representation #  1 modes #   1  2  3

     Self-consistent Calculation

[...]

     End of self-consistent calculation

     Convergence has been achieved

[...]

     Number of q in the star =    1
     List of q in the star:
          1   0.000000000   0.000000000   0.000000000

          Dielectric constant in cartesian axis

          (   49302.980938733      -0.000000000       0.000000000 )
          (       0.000000000   49302.980938733       0.000000000 )
          (       0.000000000      -0.000000000   49302.980938733 )

          Effective charges (d Force / dE) in cartesian axis

[...]

          Effective charges (d P / du) in cartesian axis

           atom      1   Ge
      Px  (       20.73614        0.00000        0.00000 )
      Py  (        0.00000       20.73614       -0.00000 )
      Pz  (        0.00000       -0.00000       20.73614 )
           atom      2   Ge
      Px  (      -21.72353       -0.00000       -0.00000 )
      Py  (       -0.00000      -21.72353        0.00000 )
      Pz  (       -0.00000        0.00000      -21.72353 )

     Diagonalizing the dynamical matrix

     q = (    0.000000000   0.000000000   0.000000000 )

     freq (    1) =     -16.362882 [THz] =    -545.806998 [cm-1]
     freq (    2) =     -16.362882 [THz] =    -545.806998 [cm-1]
     freq (    3) =     -16.362882 [THz] =    -545.806998 [cm-1]
     freq (    4) =       0.581455 [THz] =      19.395242 [cm-1]
     freq (    5) =       0.581455 [THz] =      19.395242 [cm-1]
     freq (    6) =       0.581455 [THz] =      19.395242 [cm-1]

     Mode symmetry, T_d (-43m)  point group:

     freq (  1 -  3) =       -545.8  [cm-1]   --> T_2  G_15 P_4   I+R
     freq (  4 -  6) =         19.4  [cm-1]   --> T_2  G_15 P_4   I+R

[...]

     Title:
     YOU NEED TO PUT HERE SOME TITLE :)

     bravais-lattice index     =            2
     lattice parameter (alat)  =      11.0000  a.u.
     unit-cell volume          =     332.7500 (a.u.)^3
     number of atoms/cell      =            2
     number of atomic types    =            1
     number of electrons       =        28.00
     number of Kohn-Sham states=           14
     kinetic-energy cutoff     =      35.0000  Ry
     charge density cutoff     =     140.0000  Ry
     Exchange-correlation      = PBE ( 1  4  3  4 0 0)

[...]

     atomic species   valence    mass     pseudopotential
        Ge            14.00    72.64000     Ge( 1.00)

     24 Sym. Ops. (no inversion) found

[...]

     site n.     atom                  positions (alat units)
         1           Ge  tau(   1) = (   0.0000000   0.0000000   0.0000000  )
         2           Ge  tau(   2) = (  -0.2500000   0.2500000   0.2500000  )

     number of k points=   112

     Number of k-points >= 100: set verbosity='high' to print them.

[...]

     The potential is recalculated from file :
     calc/_ph0/germanium.save/charge-density.dat

     Starting wfcs are   18 atomic wfcs
     Checking if some PAW data can be deallocated...

     Band Structure Calculation
     Davidson diagonalization with overlap

     ethr =  3.57E-11,  avg # of iterations = 11.2

     End of band structure calculation

     Number of k-points >= 100: set verbosity='high' to print the bands.

     highest occupied level (ev):     7.4419

     Writing output data file germanium.save/

[...]

      6 Sym.Ops. (no q -> -q+G )

[...]

     Mode symmetry, C_3v (3m)   point group:

[...]

     Representation     1      1 modes -A_1  L_1  To be done

[...]

     Representation     3      2 modes -E    L_3  To be done

[...]

     Representation #  1 mode #   1

[...]

     Number of q in the star =    4
     List of q in the star:
          1  -0.125000000   0.125000000  -0.125000000
          2   0.125000000  -0.125000000  -0.125000000
          3  -0.125000000  -0.125000000   0.125000000
          4   0.125000000   0.125000000   0.125000000
     In addition there is the -q list:
          1   0.125000000  -0.125000000   0.125000000
          2  -0.125000000   0.125000000   0.125000000
          3   0.125000000   0.125000000  -0.125000000
          4  -0.125000000  -0.125000000  -0.125000000

[...]

     freq (  1 -  2) =         38.2  [cm-1]   --> E    L_3
     freq (  3 -  3) =         66.5  [cm-1]   --> A_1  L_1
     freq (  4 -  5) =        285.0  [cm-1]   --> E    L_3
     freq (  6 -  6) =        285.1  [cm-1]   --> A_1  L_1

[...]

     freq (  1 -  2) =         57.0  [cm-1]   --> E    L_3
     freq (  3 -  3) =        121.8  [cm-1]   --> A_1  L_1
     freq (  4 -  4) =        271.5  [cm-1]   --> A_1  L_1
     freq (  5 -  6) =        277.5  [cm-1]   --> E    L_3

[...]

     number of k points=    64
                       cart. coord. in units 2pi/alat
        k(    1) = (   0.0000000   0.0000000   0.0000000), wk =   0.0092593
        k(    2) = (   0.5000000  -0.5000000   0.5000000), wk =   0.0000000
        k(    3) = (  -0.1666667   0.1666667  -0.1666667), wk =   0.0185185
        k(    4) = (   0.3333333  -0.3333333   0.3333333), wk =   0.0000000
        k(    5) = (  -0.3333333   0.3333333  -0.3333333), wk =   0.0185185
        k(    6) = (   0.1666667  -0.1666667   0.1666667), wk =   0.0000000
        k(    7) = (   0.5000000  -0.5000000   0.5000000), wk =   0.0092593
        k(    8) = (   1.0000000  -1.0000000   1.0000000), wk =   0.0000000
        k(    9) = (   0.0000000   0.3333333   0.0000000), wk =   0.0555556
        k(   10) = (   0.5000000  -0.1666667   0.5000000), wk =   0.0000000
[...]
     freq (  6 -  6) =        278.9  [cm-1]   --> A'

[...]

     freq (  1 -  1) =         73.9  [cm-1]   --> A''
     freq (  2 -  2) =        126.8  [cm-1]   --> A'
     freq (  3 -  3) =        172.0  [cm-1]   --> A'
     freq (  4 -  4) =        217.3  [cm-1]   --> A'
     freq (  5 -  5) =        253.2  [cm-1]   --> A'
     freq (  6 -  6) =        253.3  [cm-1]   --> A''

[...]

     freq (  1 -  1) =         71.8  [cm-1]   --> A''
     freq (  2 -  2) =        112.0  [cm-1]   --> A'
     freq (  3 -  3) =        155.3  [cm-1]   --> A'
     freq (  4 -  4) =        225.7  [cm-1]   --> A'
     freq (  5 -  5) =        262.0  [cm-1]   --> A''
     freq (  6 -  6) =        265.4  [cm-1]   --> A'

[...]

     Mode symmetry, C_2v (mm2)  point group:

     freq (  1 -  1) =         97.9  [cm-1]   --> B_1  D_3  S_3
     freq (  2 -  2) =         97.9  [cm-1]   --> B_2  D_4  S_4
     freq (  3 -  3) =        171.1  [cm-1]   --> A_1  D_1  S_1
     freq (  4 -  4) =        247.6  [cm-1]   --> B_1  D_3  S_3
     freq (  5 -  5) =        247.6  [cm-1]   --> B_2  D_4  S_4
     freq (  6 -  6) =        260.2  [cm-1]   --> A_1  D_1  S_1

[...]

     Representation     4      1 modes -A'  To be done

[...]

     Representation     6      1 modes -A''  To be done

[...]

     Mode symmetry, C_s (m)     point group:

     freq (  1 -  1) =         72.9  [cm-1]   --> A''
     freq (  2 -  2) =        137.7  [cm-1]   --> A'
     freq (  3 -  3) =        186.5  [cm-1]   --> A'
     freq (  4 -  4) =        200.5  [cm-1]   --> A'
     freq (  5 -  5) =        252.6  [cm-1]   --> A'
     freq (  6 -  6) =        252.6  [cm-1]   --> A''

[...]

     number of k points=    60
                       cart. coord. in units 2pi/alat
        k(    1) = (   0.0000000   0.0000000   0.0000000), wk =   0.0092593
        k(    2) = (   0.0000000  -1.0000000   0.0000000), wk =   0.0000000
        k(    3) = (  -0.1666667   0.1666667  -0.1666667), wk =   0.0740741
        k(    4) = (  -0.1666667  -0.8333333  -0.1666667), wk =   0.0000000
        k(    5) = (  -0.3333333   0.3333333  -0.3333333), wk =   0.0740741
        k(    6) = (  -0.3333333  -0.6666667  -0.3333333), wk =   0.0000000
        k(    7) = (   0.5000000  -0.5000000   0.5000000), wk =   0.0370370
        k(    8) = (   0.5000000  -1.5000000   0.5000000), wk =   0.0000000
        k(    9) = (   0.0000000   0.3333333   0.0000000), wk =   0.0185185
        k(   10) = (   0.0000000  -0.6666667   0.0000000), wk =   0.0000000
        k(   11) = (  -0.1666667   0.5000000  -0.1666667), wk =   0.0740741
        k(   12) = (  -0.1666667  -0.5000000  -0.1666667), wk =   0.0000000
        k(   13) = (   0.6666667  -0.3333333   0.6666667), wk =   0.0740741
        k(   14) = (   0.6666667  -1.3333333   0.6666667), wk =   0.0000000
        k(   15) = (   0.5000000  -0.1666667   0.5000000), wk =   0.0740741
        k(   16) = (   0.5000000  -1.1666667   0.5000000), wk =   0.0000000
        k(   17) = (   0.3333333   0.0000000   0.3333333), wk =   0.0370370
        k(   18) = (   0.3333333  -1.0000000   0.3333333), wk =   0.0000000
        k(   19) = (   0.0000000   0.6666667   0.0000000), wk =   0.0185185
        k(   20) = (   0.0000000  -0.3333333   0.0000000), wk =   0.0000000
        k(   21) = (   0.8333333  -0.1666667   0.8333333), wk =   0.0740741
        k(   22) = (   0.8333333  -1.1666667   0.8333333), wk =   0.0000000
        k(   23) = (   0.6666667  -0.0000000   0.6666667), wk =   0.0370370
        k(   24) = (   0.6666667  -1.0000000   0.6666667), wk =   0.0000000
        k(   25) = (   0.0000000  -1.0000000   0.0000000), wk =   0.0092593
        k(   26) = (   0.0000000  -2.0000000   0.0000000), wk =   0.0000000
        k(   27) = (   0.6666667  -0.3333333   1.0000000), wk =   0.0740741
        k(   28) = (   0.6666667  -1.3333333   1.0000000), wk =   0.0000000
        k(   29) = (   0.5000000  -0.1666667   0.8333333), wk =   0.1481481
        k(   30) = (   0.5000000  -1.1666667   0.8333333), wk =   0.0000000
        k(   31) = (  -0.3333333  -1.0000000   0.0000000), wk =   0.0370370
        k(   32) = (  -0.3333333  -2.0000000   0.0000000), wk =   0.0000000
        k(   33) = (   0.0000000   0.0000000   0.3333333), wk =   0.0370370
        k(   34) = (   0.0000000  -1.0000000   0.3333333), wk =   0.0000000
        k(   35) = (  -0.1666667  -0.1666667   0.5000000), wk =   0.1481481
        k(   36) = (  -0.1666667  -1.1666667   0.5000000), wk =   0.0000000
        k(   37) = (   0.6666667   0.6666667  -0.3333333), wk =   0.1481481
        k(   38) = (   0.6666667  -0.3333333  -0.3333333), wk =   0.0000000
        k(   39) = (   0.5000000   0.5000000  -0.1666667), wk =   0.1481481
        k(   40) = (   0.5000000  -0.5000000  -0.1666667), wk =   0.0000000
        k(   41) = (   0.3333333   0.3333333   0.0000000), wk =   0.0740741
        k(   42) = (   0.3333333  -0.6666667   0.0000000), wk =   0.0000000
        k(   43) = (   0.0000000   0.0000000   0.6666667), wk =   0.0370370
        k(   44) = (   0.0000000  -1.0000000   0.6666667), wk =   0.0000000
        k(   45) = (   0.8333333   0.8333333  -0.1666667), wk =   0.1481481
        k(   46) = (   0.8333333  -0.1666667  -0.1666667), wk =   0.0000000
        k(   47) = (   0.6666667   0.6666667   0.0000000), wk =   0.0740741
        k(   48) = (   0.6666667  -0.3333333   0.0000000), wk =   0.0000000
        k(   49) = (   0.0000000   0.0000000  -1.0000000), wk =   0.0185185
        k(   50) = (   0.0000000  -1.0000000  -1.0000000), wk =   0.0000000
        k(   51) = (   1.0000000   0.6666667  -0.3333333), wk =   0.0740741
        k(   52) = (   1.0000000  -0.3333333  -0.3333333), wk =   0.0000000
        k(   53) = (  -0.6666667  -1.0000000  -0.3333333), wk =   0.0740741
        k(   54) = (  -0.6666667  -2.0000000  -0.3333333), wk =   0.0000000
        k(   55) = (   0.8333333   0.5000000  -0.1666667), wk =   0.0740741
        k(   56) = (   0.8333333  -0.5000000  -0.1666667), wk =   0.0000000
        k(   57) = (   0.0000000  -0.3333333  -1.0000000), wk =   0.0370370
        k(   58) = (   0.0000000  -1.3333333  -1.0000000), wk =   0.0000000
        k(   59) = (   0.3333333   0.0000000  -1.0000000), wk =   0.0370370
        k(   60) = (   0.3333333  -1.0000000  -1.0000000), wk =   0.0000000

[...]

          k =-0.6667-2.0000-0.3333 (  1173 PWs)   bands (ev):

[...]

          k = 0.3333-1.0000-1.0000 (  1174 PWs)   bands (ev):

   -17.2883 -17.2883 -17.2574 -17.1805 -17.1635 -17.1481 -17.0929 -17.0544
   -17.0362 -17.0362  -3.0714   1.3193   5.0889   5.0889

[...]

      9 Sym.Ops. (with q -> -q+G )

[...]

     Mode symmetry, D_2d (-42m) point group:

[...]

     Representation     2      1 modes -B_2  X_3  W_2  To be done

     Representation     3      2 modes -E    X_5  W_3  To be done

     Representation     4      2 modes -E    X_5  W_3  To be done

[...]

     Representation #  4 modes #   5  6

[...]

     Mode symmetry, D_2d (-42m) point group:

     freq (  1 -  2) =        111.5  [cm-1]   --> E    X_5  W_3
     freq (  3 -  3) =        218.7  [cm-1]   --> A_1  X_1  W_1
     freq (  4 -  4) =        220.5  [cm-1]   --> B_2  X_3  W_2
     freq (  5 -  6) =        236.4  [cm-1]   --> E    X_5  W_3

[...]

     No symmetry!

[...]

     Mode symmetry, C_1 (1)     point group:

[...]

     Representation     1      1 modes -A  To be done

[...]

     freq (  1 -  1) =         77.9  [cm-1]   --> A
     freq (  2 -  2) =         89.7  [cm-1]   --> A
     freq (  3 -  3) =        131.3  [cm-1]   --> A
     freq (  4 -  4) =        250.9  [cm-1]   --> A
     freq (  5 -  5) =        261.4  [cm-1]   --> A
     freq (  6 -  6) =        269.9  [cm-1]   --> A

[...]

       1h

[...]

     Number of q in the star =   24
     List of q in the star:
          1   0.625000000  -0.125000000   0.875000000
          2   0.875000000  -0.125000000   0.625000000
          3  -0.625000000  -0.125000000  -0.875000000
          4  -0.875000000  -0.125000000  -0.625000000
          5  -0.875000000   0.125000000   0.625000000
          6   0.875000000   0.125000000  -0.625000000
          7  -0.625000000   0.125000000   0.875000000
          8   0.625000000   0.125000000  -0.875000000
          9   0.875000000   0.625000000  -0.125000000
         10  -0.625000000  -0.875000000  -0.125000000
         11  -0.875000000  -0.625000000  -0.125000000
         12  -0.875000000   0.625000000   0.125000000
         13  -0.625000000   0.875000000   0.125000000
         14  -0.125000000   0.625000000   0.875000000
         15   0.125000000   0.625000000  -0.875000000
         16  -0.125000000  -0.625000000  -0.875000000
         17   0.125000000  -0.625000000   0.875000000
         18  -0.125000000   0.875000000   0.625000000
         19  -0.125000000  -0.875000000  -0.625000000
         20   0.125000000  -0.875000000   0.625000000
         21   0.125000000   0.875000000  -0.625000000
         22   0.625000000   0.875000000  -0.125000000
         23   0.875000000  -0.625000000   0.125000000
         24   0.625000000  -0.875000000   0.125000000
     In addition there is the -q list:
          1  -0.625000000   0.125000000  -0.875000000
          2  -0.875000000   0.125000000  -0.625000000
          3   0.625000000   0.125000000   0.875000000
          4   0.875000000   0.125000000   0.625000000
          5   0.875000000  -0.125000000  -0.625000000
          6  -0.875000000  -0.125000000   0.625000000
          7   0.625000000  -0.125000000  -0.875000000
          8  -0.625000000  -0.125000000   0.875000000
          9  -0.875000000  -0.625000000   0.125000000
         10   0.625000000   0.875000000   0.125000000
         11   0.875000000   0.625000000   0.125000000
         12   0.875000000  -0.625000000  -0.125000000
         13   0.625000000  -0.875000000  -0.125000000
         14   0.125000000  -0.625000000  -0.875000000
         15  -0.125000000  -0.625000000   0.875000000
         16   0.125000000   0.625000000   0.875000000
         17  -0.125000000   0.625000000  -0.875000000
         18   0.125000000  -0.875000000  -0.625000000
         19   0.125000000   0.875000000   0.625000000
         20  -0.125000000   0.875000000  -0.625000000
         21  -0.125000000  -0.875000000   0.625000000
         22  -0.625000000  -0.875000000   0.125000000
         23  -0.875000000   0.625000000  -0.125000000
         24  -0.625000000   0.875000000  -0.125000000

[...]

     No symmetry!

[...]

     Representation     6      1 modes -B  To be done

[...]

     freq (  1 -  1) =        119.5  [cm-1]   --> B
     freq (  2 -  2) =        119.8  [cm-1]   --> A
     freq (  3 -  3) =        201.7  [cm-1]   --> A
     freq (  4 -  4) =        203.3  [cm-1]   --> B
     freq (  5 -  5) =        239.2  [cm-1]   --> A
     freq (  6 -  6) =        239.5  [cm-1]   --> B

     Calculation of q =   -0.5000000  -1.0000000   0.0000000

     Title:
     YOU NEED TO PUT HERE SOME TITLE :)

     bravais-lattice index     =            2
     lattice parameter (alat)  =      11.0000  a.u.
     unit-cell volume          =     332.7500 (a.u.)^3
     number of atoms/cell      =            2
     number of atomic types    =            1
     number of electrons       =        28.00
     number of Kohn-Sham states=           14
     kinetic-energy cutoff     =      35.0000  Ry
     charge density cutoff     =     140.0000  Ry
     Exchange-correlation      = PBE ( 1  4  3  4 0 0)

[...]

     atomic species   valence    mass     pseudopotential
        Ge            14.00    72.64000     Ge( 1.00)

     24 Sym. Ops. (no inversion) found

[...]

     site n.     atom                  positions (alat units)
         1           Ge  tau(   1) = (   0.0000000   0.0000000   0.0000000  )
         2           Ge  tau(   2) = (  -0.2500000   0.2500000   0.2500000  )

     number of k points=   116

     Number of k-points >= 100: set verbosity='high' to print them.

     Check: negative/imaginary core charge=   -0.000149    0.000000

     The potential is recalculated from file :
     calc/_ph0/germanium.save/charge-density.dat

     Starting wfcs are   18 atomic wfcs
     Checking if some PAW data can be deallocated...

     Band Structure Calculation
     Davidson diagonalization with overlap

     ethr =  3.57E-11,  avg # of iterations = 10.9

     End of band structure calculation

     Number of k-points >= 100: set verbosity='high' to print the bands.

     highest occupied level (ev):     7.4419

     Writing output data file germanium.save/

     YOU NEED TO PUT HERE SOME TITLE :)

     bravais-lattice index     =            2
     lattice parameter (alat)  =      11.0000  a.u.
     unit-cell volume          =     332.7500 (a.u.)^3
     number of atoms/cell      =            2
     number of atomic types    =            1
     kinetic-energy cut-off    =      35.0000  Ry
     charge density cut-off    =     140.0000  Ry
     convergence threshold     =      5.0E-14
     beta                      =       0.7000
     number of iterations used =            4
     Exchange-correlation      = PBE ( 1  4  3  4 0 0)

     celldm(1)=   11.00000  celldm(2)=    0.00000  celldm(3)=    0.00000
     celldm(4)=    0.00000  celldm(5)=    0.00000  celldm(6)=    0.00000

     crystal axes: (cart. coord. in units of alat)
               a(1) = ( -0.5000  0.0000  0.5000 )
               a(2) = (  0.0000  0.5000  0.5000 )
               a(3) = ( -0.5000  0.5000  0.0000 )

     reciprocal axes: (cart. coord. in units 2 pi/alat)
               b(1) = ( -1.0000 -1.0000  1.0000 )
               b(2) = (  1.0000  1.0000  1.0000 )
               b(3) = ( -1.0000  1.0000 -1.0000 )

     Atoms inside the unit cell:

     Cartesian axes

     site n.  atom      mass           positions (alat units)
        1     Ge  72.6400   tau(    1) = (    0.00000    0.00000    0.00000  )
        2     Ge  72.6400   tau(    2) = (   -0.25000    0.25000    0.25000  )

     Computing dynamical matrix for
                    q = (  -0.5000000  -1.0000000   0.0000000 )

      4 Sym.Ops. (no q -> -q+G )

     G cutoff =  429.0952  (    780 G-vectors)     FFT grid: ( 30, 30, 30)
     number of k points=   116

     PseudoPot. # 1 for Ge read from file:
     ../PP/Ge.pbe-dn-kjpaw_psl.0.2.2.UPF
     MD5 check sum: acf6dd3aa1b4e03129ff8bf786ac0282
     Pseudo is Projector augmented-wave + core cor, Zval = 14.0
     Generated using "atomic" code by A. Dal Corso v.5.0.2 svn rev. 9415
     Shape of augmentation charge: PSQ
     Using radial grid of 1207 points,  6 beta functions with:
                l(1) =   0
                l(2) =   0
                l(3) =   1
                l(4) =   1
                l(5) =   2
                l(6) =   2
     Q(r) pseudized with 0 coefficients

[...]

     Atomic displacements:
     There are   6 irreducible representations

[...]

     Representation     4      1 modes -E    W_4  To be done

     Representation     5      1 modes -E*   W_2  To be done

     Representation     6      1 modes -E*   W_2  To be done

     Alpha used in Ewald sum =   1.3000

[...]

     Representation #  6 mode #   6

     Self-consistent Calculation

[...]

      thresh= 3.363E-08 alpha_mix =  0.700 |ddv_scf|^2 =  2.922E-15

     End of self-consistent calculation

     Convergence has been achieved

     Number of q in the star =    6
     List of q in the star:
          1  -0.500000000  -1.000000000   0.000000000
          2   0.000000000   1.000000000  -0.500000000
          3   0.000000000   1.000000000   0.500000000
          4   0.500000000   1.000000000   0.000000000
          5   0.000000000  -0.500000000  -1.000000000
          6   0.000000000   0.500000000  -1.000000000

     Diagonalizing the dynamical matrix

     q = (   -0.500000000  -1.000000000   0.000000000 )

     freq (    1) =       3.653708 [THz] =     121.874592 [cm-1]
     freq (    2) =       3.671793 [THz] =     122.477831 [cm-1]
     freq (    3) =       5.597175 [THz] =     186.701660 [cm-1]
     freq (    4) =       5.662193 [THz] =     188.870416 [cm-1]
     freq (    5) =       7.175171 [THz] =     239.337941 [cm-1]
     freq (    6) =       7.181204 [THz] =     239.539167 [cm-1]

     Mode symmetry, S_4 (-4)    point group:

     freq (  1 -  1) =        121.9  [cm-1]   --> E*   W_2
     freq (  2 -  2) =        122.5  [cm-1]   --> B    W_3
     freq (  3 -  3) =        186.7  [cm-1]   --> A    W_1
     freq (  4 -  4) =        188.9  [cm-1]   --> E    W_4
     freq (  5 -  5) =        239.3  [cm-1]   --> B    W_3
     freq (  6 -  6) =        239.5  [cm-1]   --> E*   W_2

     General routines

     Parallel routines

      15h
     INITIALIZATION:

     DYNAMICAL MATRIX:

      General routines

      15h

   This run was terminated on:  14:13:58  11May2022

   JOB DONE.