     Program PWSCF v.6.3MaX starts on 12May2022 at 10:36:57

     R & G space division:  proc/nbgrp/npool/nimage =      12
     Waiting for input...
     Reading input from standard input

     Current dimensions of program PWSCF are:
     Max number of different atomic species (ntypx) = 10
     Max number of k-points (npk) =  40000
     Max angular momentum in pseudopotentials (lmaxx) =  3
               file Ge.pbe-dn-kjpaw_psl.0.2.2.UPF: wavefunction(s)  4P 3D renormalized

     bravais-lattice index     =            0
     lattice parameter (alat)  =       8.3519  a.u.
     unit-cell volume          =     364.9211 (a.u.)^3
     number of atoms/cell      =            2
     number of atomic types    =            1
     number of electrons       =        28.00
     number of Kohn-Sham states=           14
     kinetic-energy cutoff     =      35.0000  Ry
     charge density cutoff     =     140.0000  Ry
     convergence threshold     =      1.0E-08
     mixing beta               =       0.7000
     number of iterations used =            8  plain     mixing
     Exchange-correlation      = SLA PW PBX PBC ( 1  4  3  4 0 0)
     nstep                     =           50

     celldm(1)=   8.351872  celldm(2)=   0.000000  celldm(3)=   0.000000
     celldm(4)=   0.000000  celldm(5)=   0.000000  celldm(6)=   0.000000

     crystal axes: (cart. coord. in units of alat)
               a(1) = (  -0.659763   0.659763   0.359759 )
               a(2) = (   0.659763  -0.659763   0.359759 )
               a(3) = (   0.659763   0.659763  -0.359759 )

     reciprocal axes: (cart. coord. in units 2 pi/alat)
               b(1) = (  0.000000  0.757848  1.389818 )
               b(2) = (  0.757848  0.000000  1.389818 )
               b(3) = (  0.757848  0.757848  0.000000 )

     PseudoPot. # 1 for Ge read from file:
     ../../PP/Ge.pbe-dn-kjpaw_psl.0.2.2.UPF
     MD5 check sum: acf6dd3aa1b4e03129ff8bf786ac0282
     Pseudo is Projector augmented-wave + core cor, Zval = 14.0
     Generated using "atomic" code by A. Dal Corso v.5.0.2 svn rev. 9415
     Shape of augmentation charge: PSQ
     Using radial grid of 1207 points,  6 beta functions with:
                l(1) =   0
                l(2) =   0
                l(3) =   1
                l(4) =   1
                l(5) =   2
                l(6) =   2
     Q(r) pseudized with 0 coefficients

     atomic species   valence    mass     pseudopotential
        Ge            14.00    72.64000     Ge( 1.00)

     16 Sym. Ops., with inversion, found (12 have fractional translation)

   Cartesian axes

     site n.     atom                  positions (alat units)
         1           Ge  tau(   1) = (   0.0000000   0.9896438   0.0899398  )
         2           Ge  tau(   2) = (   0.6597625  -0.3298813   0.2698195  )

     number of k points=    30
                       cart. coord. in units 2pi/alat
        k(    1) = (   0.0000000   0.0000000   0.0000000), wk =   0.0092593
        k(    2) = (   0.1263081   0.1263081   0.0000000), wk =   0.0370370
        k(    3) = (   0.2526161   0.2526161   0.0000000), wk =   0.0370370
        k(    4) = (  -0.3789242  -0.3789242   0.0000000), wk =   0.0185185
        k(    5) = (   0.1263081   0.0000000   0.2316363), wk =   0.0740741
        k(    6) = (   0.2526161   0.1263081   0.2316363), wk =   0.1481481
        k(    7) = (   0.3789242   0.2526161   0.2316363), wk =   0.1481481
        k(    8) = (   0.2526161   0.0000000   0.4632726), wk =   0.0740741
        k(    9) = (   0.3789242   0.1263081   0.4632726), wk =   0.1481481
        k(   10) = (   0.5052323   0.2526161   0.4632726), wk =   0.0740741
        k(   11) = (   0.1263081  -0.1263081   0.4632726), wk =   0.0740741
        k(   12) = (  -0.3789242   0.0000000  -0.6949089), wk =   0.0370370
        k(   13) = (  -0.2526161   0.1263081  -0.6949089), wk =   0.1481481
        k(   14) = (   0.2526161   0.2526161   0.4632726), wk =   0.0740741
        k(   15) = (   0.3789242   0.3789242   0.4632726), wk =   0.0370370
        k(   16) = (   0.0000000   0.0000000   0.4632726), wk =   0.0185185
        k(   17) = (   0.3789242   0.2526161   0.6949089), wk =   0.0740741
        k(   18) = (  -0.0000000  -0.1263081   0.6949089), wk =   0.0740741
        k(   19) = (  -0.7578484  -0.2526161  -0.4632726), wk =   0.0740741
        k(   20) = (  -0.6315404  -0.1263081  -0.4632726), wk =   0.0740741
        k(   21) = (  -0.0000000   0.3789242  -0.2316363), wk =   0.0740741
        k(   22) = (  -0.6315404  -0.2526161  -0.2316363), wk =   0.1481481
        k(   23) = (   0.0000000   0.2526161   0.0000000), wk =   0.0370370
        k(   24) = (   0.1263081   0.3789242   0.0000000), wk =   0.0740741
        k(   25) = (  -0.5052323  -0.2526161   0.0000000), wk =   0.0370370
        k(   26) = (  -0.0000000  -0.0000000   0.9265452), wk =   0.0185185
        k(   27) = (  -0.7578484  -0.1263081  -0.2316363), wk =   0.0740741
        k(   28) = (  -0.0000000   0.5052323  -0.0000000), wk =   0.0370370
        k(   29) = (  -0.6315404  -0.1263081  -0.0000000), wk =   0.0370370
        k(   30) = (  -0.7578484  -0.7578484  -1.3898178), wk =   0.0092593

     Check: negative/imaginary core charge=   -0.000142    0.000000

     Initial potential from superposition of free atoms

     starting charge   27.99847, renormalised to   28.00000
     Starting wfcs are   18 randomized atomic wfcs
     Checking if some PAW data can be deallocated...

     Self-consistent Calculation

     iteration #  1     ecut=    35.00 Ry     beta= 0.70
     Davidson diagonalization with overlap
     ethr =  1.00E-02,  avg # of iterations =  1.4

     Threshold (ethr) on eigenvalues was too large:
     Diagonalizing with lowered threshold

     Davidson diagonalization with overlap
     ethr =  2.30E-05,  avg # of iterations =  3.5

     total energy              =    -630.96497414 Ry
     Harris-Foulkes estimate   =    -630.96688725 Ry
     estimated scf accuracy    <       0.00644852 Ry

[...]

     End of self-consistent calculation

          k = 0.0000 0.0000 0.0000 (  1277 PWs)   bands (ev):

   -18.3604 -18.3471 -18.3292 -18.3016 -18.3016 -18.2989 -18.2989 -18.2852
   -18.2351 -18.2253  -4.3847   1.0464   4.8444   4.8444

[...]

          k =-0.3789-0.3789 0.0000 (  1286 PWs)   bands (ev):

[...]

     highest occupied level (ev):     6.9542

!    total energy              =    -630.96589855 Ry
     Harris-Foulkes estimate   =    -630.96589855 Ry
     estimated scf accuracy    <          5.3E-11 Ry

     total all-electron energy =     -8395.879160 Ry

     The total energy is the sum of the following terms:

     one-electron contribution =    -281.24556463 Ry
     hartree contribution      =     158.70969813 Ry
     xc contribution           =    -113.33800970 Ry
     ewald contribution        =    -197.54420888 Ry
     one-center paw contrib.   =    -197.54781346 Ry

     convergence has been achieved in   7 iterations

     Forces acting on atoms (cartesian axes, Ry/au):

     atom    1 type  1   force =     0.00000000    0.00000000    0.00000000
     atom    2 type  1   force =     0.00000000    0.00000000    0.00000000

     Total force =     0.000000     Total SCF correction =     0.000000

     Computing stress (Cartesian axis) and pressure

          total   stress  (Ry/bohr**3)                   (kbar)     P=  -76.30
  -0.00039829   0.00000000  -0.00000000        -58.59      0.00     -0.00
   0.00000000  -0.00039829   0.00000000          0.00    -58.59      0.00
   0.00000000   0.00000000  -0.00075946          0.00      0.00   -111.72

     BFGS Geometry Optimization

     number of scf cycles    =   1
     number of bfgs steps    =   0

     enthalpy new            =    -630.9658985488 Ry

     new trust radius        =       0.0725396721 bohr
     new conv_thr            =       0.0000000100 Ry

     new unit-cell volume =    350.89881 a.u.^3 (    51.99784 Ang^3 )
     density =      4.63948 g/cm^3

CELL_PARAMETERS (angstrom)
  -2.886865859   2.886865859   1.559811382
   2.886865859  -2.886865859   1.559811382
   2.886865859   2.886865859  -1.559811382

ATOMIC_POSITIONS (crystal)
Ge       0.875000000   0.125000000   0.750000000    0   0   0
Ge       0.125000000   0.875000000   0.250000000    0   0   0

     Writing output data file germanium.save/
     NEW-OLD atomic charge density approx. for the potential

     Check: negative/imaginary core charge=   -0.000122    0.000000
     extrapolated charge   26.88115, renormalised to   28.00000

[...]

     enthalpy old            =    -630.9658985488 Ry
     enthalpy new            =    -630.9736959973 Ry

     CASE: enthalpy_new < enthalpy_old

     WARNING: bfgs curvature condition failed, Theta= 0.895
     new trust radius        =       0.1087635428 bohr
     new conv_thr            =            1.0E-10 Ry

[...]

     number of scf cycles    =  10
     number of bfgs steps    =   9

     enthalpy old            =    -631.0093774430 Ry
     enthalpy new            =    -631.0093951439 Ry

     CASE: enthalpy_new < enthalpy_old

     new trust radius        =       0.0009625028 bohr
     new conv_thr            =            1.0E-10 Ry

     new unit-cell volume =    276.22092 a.u.^3 (    40.93172 Ang^3 )
     density =      5.89379 g/cm^3

[...]

ATOMIC_POSITIONS (crystal)
Ge       0.875000000   0.125000000   0.750000000    0   0   0
Ge       0.125000000   0.875000000   0.250000000    0   0   0

     Writing output data file germanium.save/
     NEW-OLD atomic charge density approx. for the potential

     Check: negative/imaginary core charge=   -0.000049    0.000000
     extrapolated charge   27.99279, renormalised to   28.00000

[...]

     Threshold (ethr) on eigenvalues was too large:
     Diagonalizing with lowered threshold

     Davidson diagonalization with overlap
     ethr =  2.34E-08,  avg # of iterations =  1.1

[...]

     bfgs converged in  11 scf cycles and  10 bfgs steps
     (criteria: energy <  1.0E-04 Ry, force <  1.0E-03Ry/Bohr, cell <  5.0E-01kbar)

     End of BFGS Geometry Optimization

     Final enthalpy =    -631.0093954139 Ry
Begin final coordinates
     new unit-cell volume =    276.22092 a.u.^3 (    40.93172 Ang^3 )
     density =      5.89379 g/cm^3

CELL_PARAMETERS (angstrom)
  -2.785951108   2.785951108   1.318417583
   2.785951108  -2.785951108   1.318417583
   2.785951108   2.785951108  -1.318417583

ATOMIC_POSITIONS (crystal)
Ge       0.875000000   0.125000000   0.750000000    0   0   0
Ge       0.125000000   0.875000000   0.250000000    0   0   0
End final coordinates

     Writing output data file germanium.save/

     A final scf calculation at the relaxed structure.
     The G-vectors are recalculated for the final unit cell
     Results may differ from those at the preceding step.

     bravais-lattice index     =            0
     lattice parameter (alat)  =       8.3519  a.u.
     unit-cell volume          =     276.2209 (a.u.)^3
     number of atoms/cell      =            2
     number of atomic types    =            1
     number of electrons       =        28.00
     number of Kohn-Sham states=           14
     kinetic-energy cutoff     =      35.0000  Ry
     charge density cutoff     =     140.0000  Ry
     convergence threshold     =      1.0E-10
     mixing beta               =       0.7000
     number of iterations used =            8  plain     mixing
     Exchange-correlation      = SLA PW PBX PBC ( 1  4  3  4 0 0)

     celldm(1)=   8.351872  celldm(2)=   0.000000  celldm(3)=   0.000000
     celldm(4)=   0.000000  celldm(5)=   0.000000  celldm(6)=   0.000000

     crystal axes: (cart. coord. in units of alat)
               a(1) = (  -0.630360   0.630360   0.298310 )
               a(2) = (   0.630360  -0.630360   0.298310 )
               a(3) = (   0.630360   0.630360  -0.298310 )

     reciprocal axes: (cart. coord. in units 2 pi/alat)
               b(1) = (  0.000000  0.793198  1.676108 )
               b(2) = (  0.793198  0.000000  1.676108 )
               b(3) = (  0.793198  0.793198  0.000000 )

     PseudoPot. # 1 for Ge read from file:
     ../../PP/Ge.pbe-dn-kjpaw_psl.0.2.2.UPF
     MD5 check sum: acf6dd3aa1b4e03129ff8bf786ac0282
     Pseudo is Projector augmented-wave + core cor, Zval = 14.0
     Generated using "atomic" code by A. Dal Corso v.5.0.2 svn rev. 9415
     Shape of augmentation charge: PSQ
     Using radial grid of 1207 points,  6 beta functions with:
                l(1) =   0
                l(2) =   0
                l(3) =   1
                l(4) =   1
                l(5) =   2
                l(6) =   2
     Q(r) pseudized with 0 coefficients

     atomic species   valence    mass     pseudopotential
        Ge            14.00    72.64000     Ge( 1.00)

     16 Sym. Ops., with inversion, found (12 have fractional translation)

   Cartesian axes

     site n.     atom                  positions (alat units)
         1           Ge  tau(   1) = (  -0.0000000   0.9455397   0.0745775  )
         2           Ge  tau(   2) = (   0.6303598  -0.3151799   0.2237326  )

     number of k points=    30
                       cart. coord. in units 2pi/alat
        k(    1) = (   0.0000000   0.0000000   0.0000000), wk =   0.0092593
        k(    2) = (   0.1321996   0.1321996   0.0000000), wk =   0.0370370
        k(    3) = (   0.2643993   0.2643993   0.0000000), wk =   0.0370370
        k(    4) = (  -0.3965989  -0.3965989  -0.0000000), wk =   0.0185185
        k(    5) = (   0.1321996   0.0000000   0.2793513), wk =   0.0740741
        k(    6) = (   0.2643993   0.1321996   0.2793513), wk =   0.1481481
        k(    7) = (   0.3965989   0.2643993   0.2793513), wk =   0.1481481
        k(    8) = (   0.2643993   0.0000000   0.5587027), wk =   0.0740741
        k(    9) = (   0.3965989   0.1321996   0.5587027), wk =   0.1481481
        k(   10) = (   0.5287985   0.2643993   0.5587027), wk =   0.0740741
        k(   11) = (   0.1321996  -0.1321996   0.5587027), wk =   0.0740741
        k(   12) = (  -0.3965989  -0.0000000  -0.8380540), wk =   0.0370370
        k(   13) = (  -0.2643993   0.1321996  -0.8380540), wk =   0.1481481
        k(   14) = (   0.2643993   0.2643993   0.5587027), wk =   0.0740741
        k(   15) = (   0.3965989   0.3965989   0.5587027), wk =   0.0370370
        k(   16) = (   0.0000000   0.0000000   0.5587027), wk =   0.0185185
        k(   17) = (   0.3965989   0.2643993   0.8380540), wk =   0.0740741
        k(   18) = (   0.0000000  -0.1321996   0.8380540), wk =   0.0740741
        k(   19) = (  -0.7931978  -0.2643993  -0.5587027), wk =   0.0740741
        k(   20) = (  -0.6609982  -0.1321996  -0.5587027), wk =   0.0740741
        k(   21) = (   0.0000000   0.3965989  -0.2793513), wk =   0.0740741
        k(   22) = (  -0.6609982  -0.2643993  -0.2793513), wk =   0.1481481
        k(   23) = (   0.0000000   0.2643993   0.0000000), wk =   0.0370370
        k(   24) = (   0.1321996   0.3965989   0.0000000), wk =   0.0740741
        k(   25) = (  -0.5287985  -0.2643993  -0.0000000), wk =   0.0370370
        k(   26) = (   0.0000000   0.0000000   1.1174053), wk =   0.0185185
        k(   27) = (  -0.7931978  -0.1321996  -0.2793513), wk =   0.0740741
        k(   28) = (   0.0000000   0.5287985   0.0000000), wk =   0.0370370
        k(   29) = (  -0.6609982  -0.1321996  -0.0000000), wk =   0.0370370
        k(   30) = (  -0.7931978  -0.7931978  -1.6761080), wk =   0.0092593

     Check: negative/imaginary core charge=   -0.000163    0.000000

     Initial potential from superposition of free atoms

     starting charge   27.99847, renormalised to   28.00000
     Starting wfcs are   18 randomized atomic wfcs
     Checking if some PAW data can be deallocated...

     Self-consistent Calculation

[...]

     total energy              =    -631.01094136 Ry
     Harris-Foulkes estimate   =    -631.01094136 Ry
     estimated scf accuracy    <          6.3E-09 Ry

     iteration #  7     ecut=    35.00 Ry     beta= 0.70
     Davidson diagonalization with overlap
     ethr =  2.23E-11,  avg # of iterations =  2.7

     End of self-consistent calculation

[...]

          k = 0.0000 0.5288 0.0000 (   960 PWs)   bands (ev):

[...]

          k =-0.7932-0.7932-1.6761 (   968 PWs)   bands (ev):

   -15.0659 -15.0659 -14.9252 -14.9252 -14.9061 -14.9061 -14.8568 -14.8568
   -14.8550 -14.8550   0.3200   0.3200   4.2430   4.2430

     highest occupied level (ev):     9.7612

!    total energy              =    -631.01094136 Ry
     Harris-Foulkes estimate   =    -631.01094136 Ry
     estimated scf accuracy    <          2.6E-11 Ry

     total all-electron energy =     -8395.924203 Ry

     The total energy is the sum of the following terms:

     one-electron contribution =    -251.18257815 Ry
     hartree contribution      =     147.15662137 Ry
     xc contribution           =    -113.60834645 Ry
     ewald contribution        =    -215.82474852 Ry
     one-center paw contrib.   =    -197.55188960 Ry

     convergence has been achieved in   7 iterations

     Forces acting on atoms (cartesian axes, Ry/au):

     atom    1 type  1   force =    -0.00000000   -0.00000000   -0.00000000
     atom    2 type  1   force =     0.00000000    0.00000000    0.00000000

     Total force =     0.000000     Total SCF correction =     0.000000

     Computing stress (Cartesian axis) and pressure

          total   stress  (Ry/bohr**3)                   (kbar)     P=    7.74
   0.00004010   0.00000000   0.00000000          5.90      0.00      0.00
   0.00000000   0.00004010   0.00000000          0.00      5.90      0.00
   0.00000000   0.00000000   0.00007760          0.00      0.00     11.41

     Writing output data file germanium.save/

     General routines

     Parallel routines

   This run was terminated on:  10:37:53  12May2022

   JOB DONE.